*Heading
** Job name: Job_MC60 Model name: Job_MC60
** Generated by: Abaqus/CAE 2023
*Preprint, echo=NO, model=NO, history=NO, contact=NO
**
** PARTS
**
*Part, name=BOLUS
*Node
      1,           0.,           0.
      2,  0.200000003,           0.
      3,  0.400000006,           0.
      4,  0.600000024,           0.
      5,  0.800000012,           0.
      6,           1.,           0.
      7,   1.20000005,           0.
      8,   1.39999998,           0.
      9,   1.60000002,           0.
     10,   1.79999995,           0.
     11,           2.,           0.
     12,   2.20000005,           0.
     13,    2.4000001,           0.
     14,    2.5999999,           0.
     15,   2.79999995,           0.
     16,           3.,           0.
     17,   3.20000005,           0.
     18,    3.4000001,           0.
     19,    3.5999999,           0.
     20,   3.79999995,           0.
     21,           4.,           0.
     22,   4.19999981,           0.
     23,    4.4000001,           0.
     24,    4.5999999,           0.
     25,   4.80000019,           0.
     26,           5.,           0.
     27,   5.19999981,           0.
     28,    5.4000001,           0.
     29,    5.5999999,           0.
     30,   5.80000019,           0.
     31,           6.,           0.
     32,   6.19999981,           0.
     33,    6.4000001,           0.
     34,    6.5999999,           0.
     35,   6.80000019,           0.
     36,           7.,           0.
     37,   7.19999981,           0.
     38,    7.4000001,           0.
     39,    7.5999999,           0.
     40,   7.80000019,           0.
     41,           8.,           0.
     42,   8.19999981,           0.
     43,   8.39999962,           0.
     44,   8.60000038,           0.
     45,   8.80000019,           0.
     46,           9.,           0.
     47,   9.19999981,           0.
     48,   9.39999962,           0.
     49,   9.60000038,           0.
     50,   9.80000019,           0.
     51,          10.,           0.
     52,           0.,  0.200000003
     53,  0.200000003,  0.200000003
     54,  0.400000006,  0.200000003
     55,  0.600000024,  0.200000003
     56,  0.800000012,  0.200000003
     57,           1.,  0.200000003
     58,   1.20000005,  0.200000003
     59,   1.39999998,  0.200000003
     60,   1.60000002,  0.200000003
     61,   1.79999995,  0.200000003
     62,           2.,  0.200000003
     63,   2.20000005,  0.200000003
     64,    2.4000001,  0.200000003
     65,    2.5999999,  0.200000003
     66,   2.79999995,  0.200000003
     67,           3.,  0.200000003
     68,   3.20000005,  0.200000003
     69,    3.4000001,  0.200000003
     70,    3.5999999,  0.200000003
     71,   3.79999995,  0.200000003
     72,           4.,  0.200000003
     73,   4.19999981,  0.200000003
     74,    4.4000001,  0.200000003
     75,    4.5999999,  0.200000003
     76,   4.80000019,  0.200000003
     77,           5.,  0.200000003
     78,   5.19999981,  0.200000003
     79,    5.4000001,  0.200000003
     80,    5.5999999,  0.200000003
     81,   5.80000019,  0.200000003
     82,           6.,  0.200000003
     83,   6.19999981,  0.200000003
     84,    6.4000001,  0.200000003
     85,    6.5999999,  0.200000003
     86,   6.80000019,  0.200000003
     87,           7.,  0.200000003
     88,   7.19999981,  0.200000003
     89,    7.4000001,  0.200000003
     90,    7.5999999,  0.200000003
     91,   7.80000019,  0.200000003
     92,           8.,  0.200000003
     93,   8.19999981,  0.200000003
     94,   8.39999962,  0.200000003
     95,   8.60000038,  0.200000003
     96,   8.80000019,  0.200000003
     97,           9.,  0.200000003
     98,   9.19999981,  0.200000003
     99,   9.39999962,  0.200000003
    100,   9.60000038,  0.200000003
    101,   9.80000019,  0.200000003
    102,          10.,  0.200000003
    103,           0.,  0.400000006
    104,  0.200000003,  0.400000006
    105,  0.400000006,  0.400000006
    106,  0.600000024,  0.400000006
    107,  0.800000012,  0.400000006
    108,           1.,  0.400000006
    109,   1.20000005,  0.400000006
    110,   1.39999998,  0.400000006
    111,   1.60000002,  0.400000006
    112,   1.79999995,  0.400000006
    113,           2.,  0.400000006
    114,   2.20000005,  0.400000006
    115,    2.4000001,  0.400000006
    116,    2.5999999,  0.400000006
    117,   2.79999995,  0.400000006
    118,           3.,  0.400000006
    119,   3.20000005,  0.400000006
    120,    3.4000001,  0.400000006
    121,    3.5999999,  0.400000006
    122,   3.79999995,  0.400000006
    123,           4.,  0.400000006
    124,   4.19999981,  0.400000006
    125,    4.4000001,  0.400000006
    126,    4.5999999,  0.400000006
    127,   4.80000019,  0.400000006
    128,           5.,  0.400000006
    129,   5.19999981,  0.400000006
    130,    5.4000001,  0.400000006
    131,    5.5999999,  0.400000006
    132,   5.80000019,  0.400000006
    133,           6.,  0.400000006
    134,   6.19999981,  0.400000006
    135,    6.4000001,  0.400000006
    136,    6.5999999,  0.400000006
    137,   6.80000019,  0.400000006
    138,           7.,  0.400000006
    139,   7.19999981,  0.400000006
    140,    7.4000001,  0.400000006
    141,    7.5999999,  0.400000006
    142,   7.80000019,  0.400000006
    143,           8.,  0.400000006
    144,   8.19999981,  0.400000006
    145,   8.39999962,  0.400000006
    146,   8.60000038,  0.400000006
    147,   8.80000019,  0.400000006
    148,           9.,  0.400000006
    149,   9.19999981,  0.400000006
    150,   9.39999962,  0.400000006
    151,   9.60000038,  0.400000006
    152,   9.80000019,  0.400000006
    153,          10.,  0.400000006
    154,           0.,  0.600000024
    155,  0.200000003,  0.600000024
    156,  0.400000006,  0.600000024
    157,  0.600000024,  0.600000024
    158,  0.800000012,  0.600000024
    159,           1.,  0.600000024
    160,   1.20000005,  0.600000024
    161,   1.39999998,  0.600000024
    162,   1.60000002,  0.600000024
    163,   1.79999995,  0.600000024
    164,           2.,  0.600000024
    165,   2.20000005,  0.600000024
    166,    2.4000001,  0.600000024
    167,    2.5999999,  0.600000024
    168,   2.79999995,  0.600000024
    169,           3.,  0.600000024
    170,   3.20000005,  0.600000024
    171,    3.4000001,  0.600000024
    172,    3.5999999,  0.600000024
    173,   3.79999995,  0.600000024
    174,           4.,  0.600000024
    175,   4.19999981,  0.600000024
    176,    4.4000001,  0.600000024
    177,    4.5999999,  0.600000024
    178,   4.80000019,  0.600000024
    179,           5.,  0.600000024
    180,   5.19999981,  0.600000024
    181,    5.4000001,  0.600000024
    182,    5.5999999,  0.600000024
    183,   5.80000019,  0.600000024
    184,           6.,  0.600000024
    185,   6.19999981,  0.600000024
    186,    6.4000001,  0.600000024
    187,    6.5999999,  0.600000024
    188,   6.80000019,  0.600000024
    189,           7.,  0.600000024
    190,   7.19999981,  0.600000024
    191,    7.4000001,  0.600000024
    192,    7.5999999,  0.600000024
    193,   7.80000019,  0.600000024
    194,           8.,  0.600000024
    195,   8.19999981,  0.600000024
    196,   8.39999962,  0.600000024
    197,   8.60000038,  0.600000024
    198,   8.80000019,  0.600000024
    199,           9.,  0.600000024
    200,   9.19999981,  0.600000024
    201,   9.39999962,  0.600000024
    202,   9.60000038,  0.600000024
    203,   9.80000019,  0.600000024
    204,          10.,  0.600000024
    205,           0.,  0.800000012
    206,  0.200000003,  0.800000012
    207,  0.400000006,  0.800000012
    208,  0.600000024,  0.800000012
    209,  0.800000012,  0.800000012
    210,           1.,  0.800000012
    211,   1.20000005,  0.800000012
    212,   1.39999998,  0.800000012
    213,   1.60000002,  0.800000012
    214,   1.79999995,  0.800000012
    215,           2.,  0.800000012
    216,   2.20000005,  0.800000012
    217,    2.4000001,  0.800000012
    218,    2.5999999,  0.800000012
    219,   2.79999995,  0.800000012
    220,           3.,  0.800000012
    221,   3.20000005,  0.800000012
    222,    3.4000001,  0.800000012
    223,    3.5999999,  0.800000012
    224,   3.79999995,  0.800000012
    225,           4.,  0.800000012
    226,   4.19999981,  0.800000012
    227,    4.4000001,  0.800000012
    228,    4.5999999,  0.800000012
    229,   4.80000019,  0.800000012
    230,           5.,  0.800000012
    231,   5.19999981,  0.800000012
    232,    5.4000001,  0.800000012
    233,    5.5999999,  0.800000012
    234,   5.80000019,  0.800000012
    235,           6.,  0.800000012
    236,   6.19999981,  0.800000012
    237,    6.4000001,  0.800000012
    238,    6.5999999,  0.800000012
    239,   6.80000019,  0.800000012
    240,           7.,  0.800000012
    241,   7.19999981,  0.800000012
    242,    7.4000001,  0.800000012
    243,    7.5999999,  0.800000012
    244,   7.80000019,  0.800000012
    245,           8.,  0.800000012
    246,   8.19999981,  0.800000012
    247,   8.39999962,  0.800000012
    248,   8.60000038,  0.800000012
    249,   8.80000019,  0.800000012
    250,           9.,  0.800000012
    251,   9.19999981,  0.800000012
    252,   9.39999962,  0.800000012
    253,   9.60000038,  0.800000012
    254,   9.80000019,  0.800000012
    255,          10.,  0.800000012
    256,           0.,           1.
    257,  0.200000003,           1.
    258,  0.400000006,           1.
    259,  0.600000024,           1.
    260,  0.800000012,           1.
    261,           1.,           1.
    262,   1.20000005,           1.
    263,   1.39999998,           1.
    264,   1.60000002,           1.
    265,   1.79999995,           1.
    266,           2.,           1.
    267,   2.20000005,           1.
    268,    2.4000001,           1.
    269,    2.5999999,           1.
    270,   2.79999995,           1.
    271,           3.,           1.
    272,   3.20000005,           1.
    273,    3.4000001,           1.
    274,    3.5999999,           1.
    275,   3.79999995,           1.
    276,           4.,           1.
    277,   4.19999981,           1.
    278,    4.4000001,           1.
    279,    4.5999999,           1.
    280,   4.80000019,           1.
    281,           5.,           1.
    282,   5.19999981,           1.
    283,    5.4000001,           1.
    284,    5.5999999,           1.
    285,   5.80000019,           1.
    286,           6.,           1.
    287,   6.19999981,           1.
    288,    6.4000001,           1.
    289,    6.5999999,           1.
    290,   6.80000019,           1.
    291,           7.,           1.
    292,   7.19999981,           1.
    293,    7.4000001,           1.
    294,    7.5999999,           1.
    295,   7.80000019,           1.
    296,           8.,           1.
    297,   8.19999981,           1.
    298,   8.39999962,           1.
    299,   8.60000038,           1.
    300,   8.80000019,           1.
    301,           9.,           1.
    302,   9.19999981,           1.
    303,   9.39999962,           1.
    304,   9.60000038,           1.
    305,   9.80000019,           1.
    306,          10.,           1.
    307,           0.,   1.20000005
    308,  0.200000003,   1.20000005
    309,  0.400000006,   1.20000005
    310,  0.600000024,   1.20000005
    311,  0.800000012,   1.20000005
    312,           1.,   1.20000005
    313,   1.20000005,   1.20000005
    314,   1.39999998,   1.20000005
    315,   1.60000002,   1.20000005
    316,   1.79999995,   1.20000005
    317,           2.,   1.20000005
    318,   2.20000005,   1.20000005
    319,    2.4000001,   1.20000005
    320,    2.5999999,   1.20000005
    321,   2.79999995,   1.20000005
    322,           3.,   1.20000005
    323,   3.20000005,   1.20000005
    324,    3.4000001,   1.20000005
    325,    3.5999999,   1.20000005
    326,   3.79999995,   1.20000005
    327,           4.,   1.20000005
    328,   4.19999981,   1.20000005
    329,    4.4000001,   1.20000005
    330,    4.5999999,   1.20000005
    331,   4.80000019,   1.20000005
    332,           5.,   1.20000005
    333,   5.19999981,   1.20000005
    334,    5.4000001,   1.20000005
    335,    5.5999999,   1.20000005
    336,   5.80000019,   1.20000005
    337,           6.,   1.20000005
    338,   6.19999981,   1.20000005
    339,    6.4000001,   1.20000005
    340,    6.5999999,   1.20000005
    341,   6.80000019,   1.20000005
    342,           7.,   1.20000005
    343,   7.19999981,   1.20000005
    344,    7.4000001,   1.20000005
    345,    7.5999999,   1.20000005
    346,   7.80000019,   1.20000005
    347,           8.,   1.20000005
    348,   8.19999981,   1.20000005
    349,   8.39999962,   1.20000005
    350,   8.60000038,   1.20000005
    351,   8.80000019,   1.20000005
    352,           9.,   1.20000005
    353,   9.19999981,   1.20000005
    354,   9.39999962,   1.20000005
    355,   9.60000038,   1.20000005
    356,   9.80000019,   1.20000005
    357,          10.,   1.20000005
    358,           0.,   1.39999998
    359,  0.200000003,   1.39999998
    360,  0.400000006,   1.39999998
    361,  0.600000024,   1.39999998
    362,  0.800000012,   1.39999998
    363,           1.,   1.39999998
    364,   1.20000005,   1.39999998
    365,   1.39999998,   1.39999998
    366,   1.60000002,   1.39999998
    367,   1.79999995,   1.39999998
    368,           2.,   1.39999998
    369,   2.20000005,   1.39999998
    370,    2.4000001,   1.39999998
    371,    2.5999999,   1.39999998
    372,   2.79999995,   1.39999998
    373,           3.,   1.39999998
    374,   3.20000005,   1.39999998
    375,    3.4000001,   1.39999998
    376,    3.5999999,   1.39999998
    377,   3.79999995,   1.39999998
    378,           4.,   1.39999998
    379,   4.19999981,   1.39999998
    380,    4.4000001,   1.39999998
    381,    4.5999999,   1.39999998
    382,   4.80000019,   1.39999998
    383,           5.,   1.39999998
    384,   5.19999981,   1.39999998
    385,    5.4000001,   1.39999998
    386,    5.5999999,   1.39999998
    387,   5.80000019,   1.39999998
    388,           6.,   1.39999998
    389,   6.19999981,   1.39999998
    390,    6.4000001,   1.39999998
    391,    6.5999999,   1.39999998
    392,   6.80000019,   1.39999998
    393,           7.,   1.39999998
    394,   7.19999981,   1.39999998
    395,    7.4000001,   1.39999998
    396,    7.5999999,   1.39999998
    397,   7.80000019,   1.39999998
    398,           8.,   1.39999998
    399,   8.19999981,   1.39999998
    400,   8.39999962,   1.39999998
    401,   8.60000038,   1.39999998
    402,   8.80000019,   1.39999998
    403,           9.,   1.39999998
    404,   9.19999981,   1.39999998
    405,   9.39999962,   1.39999998
    406,   9.60000038,   1.39999998
    407,   9.80000019,   1.39999998
    408,          10.,   1.39999998
    409,           0.,   1.60000002
    410,  0.200000003,   1.60000002
    411,  0.400000006,   1.60000002
    412,  0.600000024,   1.60000002
    413,  0.800000012,   1.60000002
    414,           1.,   1.60000002
    415,   1.20000005,   1.60000002
    416,   1.39999998,   1.60000002
    417,   1.60000002,   1.60000002
    418,   1.79999995,   1.60000002
    419,           2.,   1.60000002
    420,   2.20000005,   1.60000002
    421,    2.4000001,   1.60000002
    422,    2.5999999,   1.60000002
    423,   2.79999995,   1.60000002
    424,           3.,   1.60000002
    425,   3.20000005,   1.60000002
    426,    3.4000001,   1.60000002
    427,    3.5999999,   1.60000002
    428,   3.79999995,   1.60000002
    429,           4.,   1.60000002
    430,   4.19999981,   1.60000002
    431,    4.4000001,   1.60000002
    432,    4.5999999,   1.60000002
    433,   4.80000019,   1.60000002
    434,           5.,   1.60000002
    435,   5.19999981,   1.60000002
    436,    5.4000001,   1.60000002
    437,    5.5999999,   1.60000002
    438,   5.80000019,   1.60000002
    439,           6.,   1.60000002
    440,   6.19999981,   1.60000002
    441,    6.4000001,   1.60000002
    442,    6.5999999,   1.60000002
    443,   6.80000019,   1.60000002
    444,           7.,   1.60000002
    445,   7.19999981,   1.60000002
    446,    7.4000001,   1.60000002
    447,    7.5999999,   1.60000002
    448,   7.80000019,   1.60000002
    449,           8.,   1.60000002
    450,   8.19999981,   1.60000002
    451,   8.39999962,   1.60000002
    452,   8.60000038,   1.60000002
    453,   8.80000019,   1.60000002
    454,           9.,   1.60000002
    455,   9.19999981,   1.60000002
    456,   9.39999962,   1.60000002
    457,   9.60000038,   1.60000002
    458,   9.80000019,   1.60000002
    459,          10.,   1.60000002
    460,           0.,   1.79999995
    461,  0.200000003,   1.79999995
    462,  0.400000006,   1.79999995
    463,  0.600000024,   1.79999995
    464,  0.800000012,   1.79999995
    465,           1.,   1.79999995
    466,   1.20000005,   1.79999995
    467,   1.39999998,   1.79999995
    468,   1.60000002,   1.79999995
    469,   1.79999995,   1.79999995
    470,           2.,   1.79999995
    471,   2.20000005,   1.79999995
    472,    2.4000001,   1.79999995
    473,    2.5999999,   1.79999995
    474,   2.79999995,   1.79999995
    475,           3.,   1.79999995
    476,   3.20000005,   1.79999995
    477,    3.4000001,   1.79999995
    478,    3.5999999,   1.79999995
    479,   3.79999995,   1.79999995
    480,           4.,   1.79999995
    481,   4.19999981,   1.79999995
    482,    4.4000001,   1.79999995
    483,    4.5999999,   1.79999995
    484,   4.80000019,   1.79999995
    485,           5.,   1.79999995
    486,   5.19999981,   1.79999995
    487,    5.4000001,   1.79999995
    488,    5.5999999,   1.79999995
    489,   5.80000019,   1.79999995
    490,           6.,   1.79999995
    491,   6.19999981,   1.79999995
    492,    6.4000001,   1.79999995
    493,    6.5999999,   1.79999995
    494,   6.80000019,   1.79999995
    495,           7.,   1.79999995
    496,   7.19999981,   1.79999995
    497,    7.4000001,   1.79999995
    498,    7.5999999,   1.79999995
    499,   7.80000019,   1.79999995
    500,           8.,   1.79999995
    501,   8.19999981,   1.79999995
    502,   8.39999962,   1.79999995
    503,   8.60000038,   1.79999995
    504,   8.80000019,   1.79999995
    505,           9.,   1.79999995
    506,   9.19999981,   1.79999995
    507,   9.39999962,   1.79999995
    508,   9.60000038,   1.79999995
    509,   9.80000019,   1.79999995
    510,          10.,   1.79999995
    511,           0.,           2.
    512,  0.200000003,           2.
    513,  0.400000006,           2.
    514,  0.600000024,           2.
    515,  0.800000012,           2.
    516,           1.,           2.
    517,   1.20000005,           2.
    518,   1.39999998,           2.
    519,   1.60000002,           2.
    520,   1.79999995,           2.
    521,           2.,           2.
    522,   2.20000005,           2.
    523,    2.4000001,           2.
    524,    2.5999999,           2.
    525,   2.79999995,           2.
    526,           3.,           2.
    527,   3.20000005,           2.
    528,    3.4000001,           2.
    529,    3.5999999,           2.
    530,   3.79999995,           2.
    531,           4.,           2.
    532,   4.19999981,           2.
    533,    4.4000001,           2.
    534,    4.5999999,           2.
    535,   4.80000019,           2.
    536,           5.,           2.
    537,   5.19999981,           2.
    538,    5.4000001,           2.
    539,    5.5999999,           2.
    540,   5.80000019,           2.
    541,           6.,           2.
    542,   6.19999981,           2.
    543,    6.4000001,           2.
    544,    6.5999999,           2.
    545,   6.80000019,           2.
    546,           7.,           2.
    547,   7.19999981,           2.
    548,    7.4000001,           2.
    549,    7.5999999,           2.
    550,   7.80000019,           2.
    551,           8.,           2.
    552,   8.19999981,           2.
    553,   8.39999962,           2.
    554,   8.60000038,           2.
    555,   8.80000019,           2.
    556,           9.,           2.
    557,   9.19999981,           2.
    558,   9.39999962,           2.
    559,   9.60000038,           2.
    560,   9.80000019,           2.
    561,          10.,           2.
    562,           0.,   2.20000005
    563,  0.200000003,   2.20000005
    564,  0.400000006,   2.20000005
    565,  0.600000024,   2.20000005
    566,  0.800000012,   2.20000005
    567,           1.,   2.20000005
    568,   1.20000005,   2.20000005
    569,   1.39999998,   2.20000005
    570,   1.60000002,   2.20000005
    571,   1.79999995,   2.20000005
    572,           2.,   2.20000005
    573,   2.20000005,   2.20000005
    574,    2.4000001,   2.20000005
    575,    2.5999999,   2.20000005
    576,   2.79999995,   2.20000005
    577,           3.,   2.20000005
    578,   3.20000005,   2.20000005
    579,    3.4000001,   2.20000005
    580,    3.5999999,   2.20000005
    581,   3.79999995,   2.20000005
    582,           4.,   2.20000005
    583,   4.19999981,   2.20000005
    584,    4.4000001,   2.20000005
    585,    4.5999999,   2.20000005
    586,   4.80000019,   2.20000005
    587,           5.,   2.20000005
    588,   5.19999981,   2.20000005
    589,    5.4000001,   2.20000005
    590,    5.5999999,   2.20000005
    591,   5.80000019,   2.20000005
    592,           6.,   2.20000005
    593,   6.19999981,   2.20000005
    594,    6.4000001,   2.20000005
    595,    6.5999999,   2.20000005
    596,   6.80000019,   2.20000005
    597,           7.,   2.20000005
    598,   7.19999981,   2.20000005
    599,    7.4000001,   2.20000005
    600,    7.5999999,   2.20000005
    601,   7.80000019,   2.20000005
    602,           8.,   2.20000005
    603,   8.19999981,   2.20000005
    604,   8.39999962,   2.20000005
    605,   8.60000038,   2.20000005
    606,   8.80000019,   2.20000005
    607,           9.,   2.20000005
    608,   9.19999981,   2.20000005
    609,   9.39999962,   2.20000005
    610,   9.60000038,   2.20000005
    611,   9.80000019,   2.20000005
    612,          10.,   2.20000005
    613,           0.,    2.4000001
    614,  0.200000003,    2.4000001
    615,  0.400000006,    2.4000001
    616,  0.600000024,    2.4000001
    617,  0.800000012,    2.4000001
    618,           1.,    2.4000001
    619,   1.20000005,    2.4000001
    620,   1.39999998,    2.4000001
    621,   1.60000002,    2.4000001
    622,   1.79999995,    2.4000001
    623,           2.,    2.4000001
    624,   2.20000005,    2.4000001
    625,    2.4000001,    2.4000001
    626,    2.5999999,    2.4000001
    627,   2.79999995,    2.4000001
    628,           3.,    2.4000001
    629,   3.20000005,    2.4000001
    630,    3.4000001,    2.4000001
    631,    3.5999999,    2.4000001
    632,   3.79999995,    2.4000001
    633,           4.,    2.4000001
    634,   4.19999981,    2.4000001
    635,    4.4000001,    2.4000001
    636,    4.5999999,    2.4000001
    637,   4.80000019,    2.4000001
    638,           5.,    2.4000001
    639,   5.19999981,    2.4000001
    640,    5.4000001,    2.4000001
    641,    5.5999999,    2.4000001
    642,   5.80000019,    2.4000001
    643,           6.,    2.4000001
    644,   6.19999981,    2.4000001
    645,    6.4000001,    2.4000001
    646,    6.5999999,    2.4000001
    647,   6.80000019,    2.4000001
    648,           7.,    2.4000001
    649,   7.19999981,    2.4000001
    650,    7.4000001,    2.4000001
    651,    7.5999999,    2.4000001
    652,   7.80000019,    2.4000001
    653,           8.,    2.4000001
    654,   8.19999981,    2.4000001
    655,   8.39999962,    2.4000001
    656,   8.60000038,    2.4000001
    657,   8.80000019,    2.4000001
    658,           9.,    2.4000001
    659,   9.19999981,    2.4000001
    660,   9.39999962,    2.4000001
    661,   9.60000038,    2.4000001
    662,   9.80000019,    2.4000001
    663,          10.,    2.4000001
    664,           0.,    2.5999999
    665,  0.200000003,    2.5999999
    666,  0.400000006,    2.5999999
    667,  0.600000024,    2.5999999
    668,  0.800000012,    2.5999999
    669,           1.,    2.5999999
    670,   1.20000005,    2.5999999
    671,   1.39999998,    2.5999999
    672,   1.60000002,    2.5999999
    673,   1.79999995,    2.5999999
    674,           2.,    2.5999999
    675,   2.20000005,    2.5999999
    676,    2.4000001,    2.5999999
    677,    2.5999999,    2.5999999
    678,   2.79999995,    2.5999999
    679,           3.,    2.5999999
    680,   3.20000005,    2.5999999
    681,    3.4000001,    2.5999999
    682,    3.5999999,    2.5999999
    683,   3.79999995,    2.5999999
    684,           4.,    2.5999999
    685,   4.19999981,    2.5999999
    686,    4.4000001,    2.5999999
    687,    4.5999999,    2.5999999
    688,   4.80000019,    2.5999999
    689,           5.,    2.5999999
    690,   5.19999981,    2.5999999
    691,    5.4000001,    2.5999999
    692,    5.5999999,    2.5999999
    693,   5.80000019,    2.5999999
    694,           6.,    2.5999999
    695,   6.19999981,    2.5999999
    696,    6.4000001,    2.5999999
    697,    6.5999999,    2.5999999
    698,   6.80000019,    2.5999999
    699,           7.,    2.5999999
    700,   7.19999981,    2.5999999
    701,    7.4000001,    2.5999999
    702,    7.5999999,    2.5999999
    703,   7.80000019,    2.5999999
    704,           8.,    2.5999999
    705,   8.19999981,    2.5999999
    706,   8.39999962,    2.5999999
    707,   8.60000038,    2.5999999
    708,   8.80000019,    2.5999999
    709,           9.,    2.5999999
    710,   9.19999981,    2.5999999
    711,   9.39999962,    2.5999999
    712,   9.60000038,    2.5999999
    713,   9.80000019,    2.5999999
    714,          10.,    2.5999999
    715,           0.,   2.79999995
    716,  0.200000003,   2.79999995
    717,  0.400000006,   2.79999995
    718,  0.600000024,   2.79999995
    719,  0.800000012,   2.79999995
    720,           1.,   2.79999995
    721,   1.20000005,   2.79999995
    722,   1.39999998,   2.79999995
    723,   1.60000002,   2.79999995
    724,   1.79999995,   2.79999995
    725,           2.,   2.79999995
    726,   2.20000005,   2.79999995
    727,    2.4000001,   2.79999995
    728,    2.5999999,   2.79999995
    729,   2.79999995,   2.79999995
    730,           3.,   2.79999995
    731,   3.20000005,   2.79999995
    732,    3.4000001,   2.79999995
    733,    3.5999999,   2.79999995
    734,   3.79999995,   2.79999995
    735,           4.,   2.79999995
    736,   4.19999981,   2.79999995
    737,    4.4000001,   2.79999995
    738,    4.5999999,   2.79999995
    739,   4.80000019,   2.79999995
    740,           5.,   2.79999995
    741,   5.19999981,   2.79999995
    742,    5.4000001,   2.79999995
    743,    5.5999999,   2.79999995
    744,   5.80000019,   2.79999995
    745,           6.,   2.79999995
    746,   6.19999981,   2.79999995
    747,    6.4000001,   2.79999995
    748,    6.5999999,   2.79999995
    749,   6.80000019,   2.79999995
    750,           7.,   2.79999995
    751,   7.19999981,   2.79999995
    752,    7.4000001,   2.79999995
    753,    7.5999999,   2.79999995
    754,   7.80000019,   2.79999995
    755,           8.,   2.79999995
    756,   8.19999981,   2.79999995
    757,   8.39999962,   2.79999995
    758,   8.60000038,   2.79999995
    759,   8.80000019,   2.79999995
    760,           9.,   2.79999995
    761,   9.19999981,   2.79999995
    762,   9.39999962,   2.79999995
    763,   9.60000038,   2.79999995
    764,   9.80000019,   2.79999995
    765,          10.,   2.79999995
    766,           0.,           3.
    767,  0.200000003,           3.
    768,  0.400000006,           3.
    769,  0.600000024,           3.
    770,  0.800000012,           3.
    771,           1.,           3.
    772,   1.20000005,           3.
    773,   1.39999998,           3.
    774,   1.60000002,           3.
    775,   1.79999995,           3.
    776,           2.,           3.
    777,   2.20000005,           3.
    778,    2.4000001,           3.
    779,    2.5999999,           3.
    780,   2.79999995,           3.
    781,           3.,           3.
    782,   3.20000005,           3.
    783,    3.4000001,           3.
    784,    3.5999999,           3.
    785,   3.79999995,           3.
    786,           4.,           3.
    787,   4.19999981,           3.
    788,    4.4000001,           3.
    789,    4.5999999,           3.
    790,   4.80000019,           3.
    791,           5.,           3.
    792,   5.19999981,           3.
    793,    5.4000001,           3.
    794,    5.5999999,           3.
    795,   5.80000019,           3.
    796,           6.,           3.
    797,   6.19999981,           3.
    798,    6.4000001,           3.
    799,    6.5999999,           3.
    800,   6.80000019,           3.
    801,           7.,           3.
    802,   7.19999981,           3.
    803,    7.4000001,           3.
    804,    7.5999999,           3.
    805,   7.80000019,           3.
    806,           8.,           3.
    807,   8.19999981,           3.
    808,   8.39999962,           3.
    809,   8.60000038,           3.
    810,   8.80000019,           3.
    811,           9.,           3.
    812,   9.19999981,           3.
    813,   9.39999962,           3.
    814,   9.60000038,           3.
    815,   9.80000019,           3.
    816,          10.,           3.
    817,           0.,   3.20000005
    818,  0.200000003,   3.20000005
    819,  0.400000006,   3.20000005
    820,  0.600000024,   3.20000005
    821,  0.800000012,   3.20000005
    822,           1.,   3.20000005
    823,   1.20000005,   3.20000005
    824,   1.39999998,   3.20000005
    825,   1.60000002,   3.20000005
    826,   1.79999995,   3.20000005
    827,           2.,   3.20000005
    828,   2.20000005,   3.20000005
    829,    2.4000001,   3.20000005
    830,    2.5999999,   3.20000005
    831,   2.79999995,   3.20000005
    832,           3.,   3.20000005
    833,   3.20000005,   3.20000005
    834,    3.4000001,   3.20000005
    835,    3.5999999,   3.20000005
    836,   3.79999995,   3.20000005
    837,           4.,   3.20000005
    838,   4.19999981,   3.20000005
    839,    4.4000001,   3.20000005
    840,    4.5999999,   3.20000005
    841,   4.80000019,   3.20000005
    842,           5.,   3.20000005
    843,   5.19999981,   3.20000005
    844,    5.4000001,   3.20000005
    845,    5.5999999,   3.20000005
    846,   5.80000019,   3.20000005
    847,           6.,   3.20000005
    848,   6.19999981,   3.20000005
    849,    6.4000001,   3.20000005
    850,    6.5999999,   3.20000005
    851,   6.80000019,   3.20000005
    852,           7.,   3.20000005
    853,   7.19999981,   3.20000005
    854,    7.4000001,   3.20000005
    855,    7.5999999,   3.20000005
    856,   7.80000019,   3.20000005
    857,           8.,   3.20000005
    858,   8.19999981,   3.20000005
    859,   8.39999962,   3.20000005
    860,   8.60000038,   3.20000005
    861,   8.80000019,   3.20000005
    862,           9.,   3.20000005
    863,   9.19999981,   3.20000005
    864,   9.39999962,   3.20000005
    865,   9.60000038,   3.20000005
    866,   9.80000019,   3.20000005
    867,          10.,   3.20000005
    868,           0.,    3.4000001
    869,  0.200000003,    3.4000001
    870,  0.400000006,    3.4000001
    871,  0.600000024,    3.4000001
    872,  0.800000012,    3.4000001
    873,           1.,    3.4000001
    874,   1.20000005,    3.4000001
    875,   1.39999998,    3.4000001
    876,   1.60000002,    3.4000001
    877,   1.79999995,    3.4000001
    878,           2.,    3.4000001
    879,   2.20000005,    3.4000001
    880,    2.4000001,    3.4000001
    881,    2.5999999,    3.4000001
    882,   2.79999995,    3.4000001
    883,           3.,    3.4000001
    884,   3.20000005,    3.4000001
    885,    3.4000001,    3.4000001
    886,    3.5999999,    3.4000001
    887,   3.79999995,    3.4000001
    888,           4.,    3.4000001
    889,   4.19999981,    3.4000001
    890,    4.4000001,    3.4000001
    891,    4.5999999,    3.4000001
    892,   4.80000019,    3.4000001
    893,           5.,    3.4000001
    894,   5.19999981,    3.4000001
    895,    5.4000001,    3.4000001
    896,    5.5999999,    3.4000001
    897,   5.80000019,    3.4000001
    898,           6.,    3.4000001
    899,   6.19999981,    3.4000001
    900,    6.4000001,    3.4000001
    901,    6.5999999,    3.4000001
    902,   6.80000019,    3.4000001
    903,           7.,    3.4000001
    904,   7.19999981,    3.4000001
    905,    7.4000001,    3.4000001
    906,    7.5999999,    3.4000001
    907,   7.80000019,    3.4000001
    908,           8.,    3.4000001
    909,   8.19999981,    3.4000001
    910,   8.39999962,    3.4000001
    911,   8.60000038,    3.4000001
    912,   8.80000019,    3.4000001
    913,           9.,    3.4000001
    914,   9.19999981,    3.4000001
    915,   9.39999962,    3.4000001
    916,   9.60000038,    3.4000001
    917,   9.80000019,    3.4000001
    918,          10.,    3.4000001
    919,           0.,    3.5999999
    920,  0.200000003,    3.5999999
    921,  0.400000006,    3.5999999
    922,  0.600000024,    3.5999999
    923,  0.800000012,    3.5999999
    924,           1.,    3.5999999
    925,   1.20000005,    3.5999999
    926,   1.39999998,    3.5999999
    927,   1.60000002,    3.5999999
    928,   1.79999995,    3.5999999
    929,           2.,    3.5999999
    930,   2.20000005,    3.5999999
    931,    2.4000001,    3.5999999
    932,    2.5999999,    3.5999999
    933,   2.79999995,    3.5999999
    934,           3.,    3.5999999
    935,   3.20000005,    3.5999999
    936,    3.4000001,    3.5999999
    937,    3.5999999,    3.5999999
    938,   3.79999995,    3.5999999
    939,           4.,    3.5999999
    940,   4.19999981,    3.5999999
    941,    4.4000001,    3.5999999
    942,    4.5999999,    3.5999999
    943,   4.80000019,    3.5999999
    944,           5.,    3.5999999
    945,   5.19999981,    3.5999999
    946,    5.4000001,    3.5999999
    947,    5.5999999,    3.5999999
    948,   5.80000019,    3.5999999
    949,           6.,    3.5999999
    950,   6.19999981,    3.5999999
    951,    6.4000001,    3.5999999
    952,    6.5999999,    3.5999999
    953,   6.80000019,    3.5999999
    954,           7.,    3.5999999
    955,   7.19999981,    3.5999999
    956,    7.4000001,    3.5999999
    957,    7.5999999,    3.5999999
    958,   7.80000019,    3.5999999
    959,           8.,    3.5999999
    960,   8.19999981,    3.5999999
    961,   8.39999962,    3.5999999
    962,   8.60000038,    3.5999999
    963,   8.80000019,    3.5999999
    964,           9.,    3.5999999
    965,   9.19999981,    3.5999999
    966,   9.39999962,    3.5999999
    967,   9.60000038,    3.5999999
    968,   9.80000019,    3.5999999
    969,          10.,    3.5999999
    970,           0.,   3.79999995
    971,  0.200000003,   3.79999995
    972,  0.400000006,   3.79999995
    973,  0.600000024,   3.79999995
    974,  0.800000012,   3.79999995
    975,           1.,   3.79999995
    976,   1.20000005,   3.79999995
    977,   1.39999998,   3.79999995
    978,   1.60000002,   3.79999995
    979,   1.79999995,   3.79999995
    980,           2.,   3.79999995
    981,   2.20000005,   3.79999995
    982,    2.4000001,   3.79999995
    983,    2.5999999,   3.79999995
    984,   2.79999995,   3.79999995
    985,           3.,   3.79999995
    986,   3.20000005,   3.79999995
    987,    3.4000001,   3.79999995
    988,    3.5999999,   3.79999995
    989,   3.79999995,   3.79999995
    990,           4.,   3.79999995
    991,   4.19999981,   3.79999995
    992,    4.4000001,   3.79999995
    993,    4.5999999,   3.79999995
    994,   4.80000019,   3.79999995
    995,           5.,   3.79999995
    996,   5.19999981,   3.79999995
    997,    5.4000001,   3.79999995
    998,    5.5999999,   3.79999995
    999,   5.80000019,   3.79999995
   1000,           6.,   3.79999995
   1001,   6.19999981,   3.79999995
   1002,    6.4000001,   3.79999995
   1003,    6.5999999,   3.79999995
   1004,   6.80000019,   3.79999995
   1005,           7.,   3.79999995
   1006,   7.19999981,   3.79999995
   1007,    7.4000001,   3.79999995
   1008,    7.5999999,   3.79999995
   1009,   7.80000019,   3.79999995
   1010,           8.,   3.79999995
   1011,   8.19999981,   3.79999995
   1012,   8.39999962,   3.79999995
   1013,   8.60000038,   3.79999995
   1014,   8.80000019,   3.79999995
   1015,           9.,   3.79999995
   1016,   9.19999981,   3.79999995
   1017,   9.39999962,   3.79999995
   1018,   9.60000038,   3.79999995
   1019,   9.80000019,   3.79999995
   1020,          10.,   3.79999995
   1021,           0.,           4.
   1022,  0.200000003,           4.
   1023,  0.400000006,           4.
   1024,  0.600000024,           4.
   1025,  0.800000012,           4.
   1026,           1.,           4.
   1027,   1.20000005,           4.
   1028,   1.39999998,           4.
   1029,   1.60000002,           4.
   1030,   1.79999995,           4.
   1031,           2.,           4.
   1032,   2.20000005,           4.
   1033,    2.4000001,           4.
   1034,    2.5999999,           4.
   1035,   2.79999995,           4.
   1036,           3.,           4.
   1037,   3.20000005,           4.
   1038,    3.4000001,           4.
   1039,    3.5999999,           4.
   1040,   3.79999995,           4.
   1041,           4.,           4.
   1042,   4.19999981,           4.
   1043,    4.4000001,           4.
   1044,    4.5999999,           4.
   1045,   4.80000019,           4.
   1046,           5.,           4.
   1047,   5.19999981,           4.
   1048,    5.4000001,           4.
   1049,    5.5999999,           4.
   1050,   5.80000019,           4.
   1051,           6.,           4.
   1052,   6.19999981,           4.
   1053,    6.4000001,           4.
   1054,    6.5999999,           4.
   1055,   6.80000019,           4.
   1056,           7.,           4.
   1057,   7.19999981,           4.
   1058,    7.4000001,           4.
   1059,    7.5999999,           4.
   1060,   7.80000019,           4.
   1061,           8.,           4.
   1062,   8.19999981,           4.
   1063,   8.39999962,           4.
   1064,   8.60000038,           4.
   1065,   8.80000019,           4.
   1066,           9.,           4.
   1067,   9.19999981,           4.
   1068,   9.39999962,           4.
   1069,   9.60000038,           4.
   1070,   9.80000019,           4.
   1071,          10.,           4.
   1072,           0.,   4.19999981
   1073,  0.200000003,   4.19999981
   1074,  0.400000006,   4.19999981
   1075,  0.600000024,   4.19999981
   1076,  0.800000012,   4.19999981
   1077,           1.,   4.19999981
   1078,   1.20000005,   4.19999981
   1079,   1.39999998,   4.19999981
   1080,   1.60000002,   4.19999981
   1081,   1.79999995,   4.19999981
   1082,           2.,   4.19999981
   1083,   2.20000005,   4.19999981
   1084,    2.4000001,   4.19999981
   1085,    2.5999999,   4.19999981
   1086,   2.79999995,   4.19999981
   1087,           3.,   4.19999981
   1088,   3.20000005,   4.19999981
   1089,    3.4000001,   4.19999981
   1090,    3.5999999,   4.19999981
   1091,   3.79999995,   4.19999981
   1092,           4.,   4.19999981
   1093,   4.19999981,   4.19999981
   1094,    4.4000001,   4.19999981
   1095,    4.5999999,   4.19999981
   1096,   4.80000019,   4.19999981
   1097,           5.,   4.19999981
   1098,   5.19999981,   4.19999981
   1099,    5.4000001,   4.19999981
   1100,    5.5999999,   4.19999981
   1101,   5.80000019,   4.19999981
   1102,           6.,   4.19999981
   1103,   6.19999981,   4.19999981
   1104,    6.4000001,   4.19999981
   1105,    6.5999999,   4.19999981
   1106,   6.80000019,   4.19999981
   1107,           7.,   4.19999981
   1108,   7.19999981,   4.19999981
   1109,    7.4000001,   4.19999981
   1110,    7.5999999,   4.19999981
   1111,   7.80000019,   4.19999981
   1112,           8.,   4.19999981
   1113,   8.19999981,   4.19999981
   1114,   8.39999962,   4.19999981
   1115,   8.60000038,   4.19999981
   1116,   8.80000019,   4.19999981
   1117,           9.,   4.19999981
   1118,   9.19999981,   4.19999981
   1119,   9.39999962,   4.19999981
   1120,   9.60000038,   4.19999981
   1121,   9.80000019,   4.19999981
   1122,          10.,   4.19999981
   1123,           0.,    4.4000001
   1124,  0.200000003,    4.4000001
   1125,  0.400000006,    4.4000001
   1126,  0.600000024,    4.4000001
   1127,  0.800000012,    4.4000001
   1128,           1.,    4.4000001
   1129,   1.20000005,    4.4000001
   1130,   1.39999998,    4.4000001
   1131,   1.60000002,    4.4000001
   1132,   1.79999995,    4.4000001
   1133,           2.,    4.4000001
   1134,   2.20000005,    4.4000001
   1135,    2.4000001,    4.4000001
   1136,    2.5999999,    4.4000001
   1137,   2.79999995,    4.4000001
   1138,           3.,    4.4000001
   1139,   3.20000005,    4.4000001
   1140,    3.4000001,    4.4000001
   1141,    3.5999999,    4.4000001
   1142,   3.79999995,    4.4000001
   1143,           4.,    4.4000001
   1144,   4.19999981,    4.4000001
   1145,    4.4000001,    4.4000001
   1146,    4.5999999,    4.4000001
   1147,   4.80000019,    4.4000001
   1148,           5.,    4.4000001
   1149,   5.19999981,    4.4000001
   1150,    5.4000001,    4.4000001
   1151,    5.5999999,    4.4000001
   1152,   5.80000019,    4.4000001
   1153,           6.,    4.4000001
   1154,   6.19999981,    4.4000001
   1155,    6.4000001,    4.4000001
   1156,    6.5999999,    4.4000001
   1157,   6.80000019,    4.4000001
   1158,           7.,    4.4000001
   1159,   7.19999981,    4.4000001
   1160,    7.4000001,    4.4000001
   1161,    7.5999999,    4.4000001
   1162,   7.80000019,    4.4000001
   1163,           8.,    4.4000001
   1164,   8.19999981,    4.4000001
   1165,   8.39999962,    4.4000001
   1166,   8.60000038,    4.4000001
   1167,   8.80000019,    4.4000001
   1168,           9.,    4.4000001
   1169,   9.19999981,    4.4000001
   1170,   9.39999962,    4.4000001
   1171,   9.60000038,    4.4000001
   1172,   9.80000019,    4.4000001
   1173,          10.,    4.4000001
   1174,           0.,    4.5999999
   1175,  0.200000003,    4.5999999
   1176,  0.400000006,    4.5999999
   1177,  0.600000024,    4.5999999
   1178,  0.800000012,    4.5999999
   1179,           1.,    4.5999999
   1180,   1.20000005,    4.5999999
   1181,   1.39999998,    4.5999999
   1182,   1.60000002,    4.5999999
   1183,   1.79999995,    4.5999999
   1184,           2.,    4.5999999
   1185,   2.20000005,    4.5999999
   1186,    2.4000001,    4.5999999
   1187,    2.5999999,    4.5999999
   1188,   2.79999995,    4.5999999
   1189,           3.,    4.5999999
   1190,   3.20000005,    4.5999999
   1191,    3.4000001,    4.5999999
   1192,    3.5999999,    4.5999999
   1193,   3.79999995,    4.5999999
   1194,           4.,    4.5999999
   1195,   4.19999981,    4.5999999
   1196,    4.4000001,    4.5999999
   1197,    4.5999999,    4.5999999
   1198,   4.80000019,    4.5999999
   1199,           5.,    4.5999999
   1200,   5.19999981,    4.5999999
   1201,    5.4000001,    4.5999999
   1202,    5.5999999,    4.5999999
   1203,   5.80000019,    4.5999999
   1204,           6.,    4.5999999
   1205,   6.19999981,    4.5999999
   1206,    6.4000001,    4.5999999
   1207,    6.5999999,    4.5999999
   1208,   6.80000019,    4.5999999
   1209,           7.,    4.5999999
   1210,   7.19999981,    4.5999999
   1211,    7.4000001,    4.5999999
   1212,    7.5999999,    4.5999999
   1213,   7.80000019,    4.5999999
   1214,           8.,    4.5999999
   1215,   8.19999981,    4.5999999
   1216,   8.39999962,    4.5999999
   1217,   8.60000038,    4.5999999
   1218,   8.80000019,    4.5999999
   1219,           9.,    4.5999999
   1220,   9.19999981,    4.5999999
   1221,   9.39999962,    4.5999999
   1222,   9.60000038,    4.5999999
   1223,   9.80000019,    4.5999999
   1224,          10.,    4.5999999
   1225,           0.,   4.80000019
   1226,  0.200000003,   4.80000019
   1227,  0.400000006,   4.80000019
   1228,  0.600000024,   4.80000019
   1229,  0.800000012,   4.80000019
   1230,           1.,   4.80000019
   1231,   1.20000005,   4.80000019
   1232,   1.39999998,   4.80000019
   1233,   1.60000002,   4.80000019
   1234,   1.79999995,   4.80000019
   1235,           2.,   4.80000019
   1236,   2.20000005,   4.80000019
   1237,    2.4000001,   4.80000019
   1238,    2.5999999,   4.80000019
   1239,   2.79999995,   4.80000019
   1240,           3.,   4.80000019
   1241,   3.20000005,   4.80000019
   1242,    3.4000001,   4.80000019
   1243,    3.5999999,   4.80000019
   1244,   3.79999995,   4.80000019
   1245,           4.,   4.80000019
   1246,   4.19999981,   4.80000019
   1247,    4.4000001,   4.80000019
   1248,    4.5999999,   4.80000019
   1249,   4.80000019,   4.80000019
   1250,           5.,   4.80000019
   1251,   5.19999981,   4.80000019
   1252,    5.4000001,   4.80000019
   1253,    5.5999999,   4.80000019
   1254,   5.80000019,   4.80000019
   1255,           6.,   4.80000019
   1256,   6.19999981,   4.80000019
   1257,    6.4000001,   4.80000019
   1258,    6.5999999,   4.80000019
   1259,   6.80000019,   4.80000019
   1260,           7.,   4.80000019
   1261,   7.19999981,   4.80000019
   1262,    7.4000001,   4.80000019
   1263,    7.5999999,   4.80000019
   1264,   7.80000019,   4.80000019
   1265,           8.,   4.80000019
   1266,   8.19999981,   4.80000019
   1267,   8.39999962,   4.80000019
   1268,   8.60000038,   4.80000019
   1269,   8.80000019,   4.80000019
   1270,           9.,   4.80000019
   1271,   9.19999981,   4.80000019
   1272,   9.39999962,   4.80000019
   1273,   9.60000038,   4.80000019
   1274,   9.80000019,   4.80000019
   1275,          10.,   4.80000019
   1276,           0.,           5.
   1277,  0.200000003,           5.
   1278,  0.400000006,           5.
   1279,  0.600000024,           5.
   1280,  0.800000012,           5.
   1281,           1.,           5.
   1282,   1.20000005,           5.
   1283,   1.39999998,           5.
   1284,   1.60000002,           5.
   1285,   1.79999995,           5.
   1286,           2.,           5.
   1287,   2.20000005,           5.
   1288,    2.4000001,           5.
   1289,    2.5999999,           5.
   1290,   2.79999995,           5.
   1291,           3.,           5.
   1292,   3.20000005,           5.
   1293,    3.4000001,           5.
   1294,    3.5999999,           5.
   1295,   3.79999995,           5.
   1296,           4.,           5.
   1297,   4.19999981,           5.
   1298,    4.4000001,           5.
   1299,    4.5999999,           5.
   1300,   4.80000019,           5.
   1301,           5.,           5.
   1302,   5.19999981,           5.
   1303,    5.4000001,           5.
   1304,    5.5999999,           5.
   1305,   5.80000019,           5.
   1306,           6.,           5.
   1307,   6.19999981,           5.
   1308,    6.4000001,           5.
   1309,    6.5999999,           5.
   1310,   6.80000019,           5.
   1311,           7.,           5.
   1312,   7.19999981,           5.
   1313,    7.4000001,           5.
   1314,    7.5999999,           5.
   1315,   7.80000019,           5.
   1316,           8.,           5.
   1317,   8.19999981,           5.
   1318,   8.39999962,           5.
   1319,   8.60000038,           5.
   1320,   8.80000019,           5.
   1321,           9.,           5.
   1322,   9.19999981,           5.
   1323,   9.39999962,           5.
   1324,   9.60000038,           5.
   1325,   9.80000019,           5.
   1326,          10.,           5.
   1327,           0.,   5.19999981
   1328,  0.200000003,   5.19999981
   1329,  0.400000006,   5.19999981
   1330,  0.600000024,   5.19999981
   1331,  0.800000012,   5.19999981
   1332,           1.,   5.19999981
   1333,   1.20000005,   5.19999981
   1334,   1.39999998,   5.19999981
   1335,   1.60000002,   5.19999981
   1336,   1.79999995,   5.19999981
   1337,           2.,   5.19999981
   1338,   2.20000005,   5.19999981
   1339,    2.4000001,   5.19999981
   1340,    2.5999999,   5.19999981
   1341,   2.79999995,   5.19999981
   1342,           3.,   5.19999981
   1343,   3.20000005,   5.19999981
   1344,    3.4000001,   5.19999981
   1345,    3.5999999,   5.19999981
   1346,   3.79999995,   5.19999981
   1347,           4.,   5.19999981
   1348,   4.19999981,   5.19999981
   1349,    4.4000001,   5.19999981
   1350,    4.5999999,   5.19999981
   1351,   4.80000019,   5.19999981
   1352,           5.,   5.19999981
   1353,   5.19999981,   5.19999981
   1354,    5.4000001,   5.19999981
   1355,    5.5999999,   5.19999981
   1356,   5.80000019,   5.19999981
   1357,           6.,   5.19999981
   1358,   6.19999981,   5.19999981
   1359,    6.4000001,   5.19999981
   1360,    6.5999999,   5.19999981
   1361,   6.80000019,   5.19999981
   1362,           7.,   5.19999981
   1363,   7.19999981,   5.19999981
   1364,    7.4000001,   5.19999981
   1365,    7.5999999,   5.19999981
   1366,   7.80000019,   5.19999981
   1367,           8.,   5.19999981
   1368,   8.19999981,   5.19999981
   1369,   8.39999962,   5.19999981
   1370,   8.60000038,   5.19999981
   1371,   8.80000019,   5.19999981
   1372,           9.,   5.19999981
   1373,   9.19999981,   5.19999981
   1374,   9.39999962,   5.19999981
   1375,   9.60000038,   5.19999981
   1376,   9.80000019,   5.19999981
   1377,          10.,   5.19999981
   1378,           0.,    5.4000001
   1379,  0.200000003,    5.4000001
   1380,  0.400000006,    5.4000001
   1381,  0.600000024,    5.4000001
   1382,  0.800000012,    5.4000001
   1383,           1.,    5.4000001
   1384,   1.20000005,    5.4000001
   1385,   1.39999998,    5.4000001
   1386,   1.60000002,    5.4000001
   1387,   1.79999995,    5.4000001
   1388,           2.,    5.4000001
   1389,   2.20000005,    5.4000001
   1390,    2.4000001,    5.4000001
   1391,    2.5999999,    5.4000001
   1392,   2.79999995,    5.4000001
   1393,           3.,    5.4000001
   1394,   3.20000005,    5.4000001
   1395,    3.4000001,    5.4000001
   1396,    3.5999999,    5.4000001
   1397,   3.79999995,    5.4000001
   1398,           4.,    5.4000001
   1399,   4.19999981,    5.4000001
   1400,    4.4000001,    5.4000001
   1401,    4.5999999,    5.4000001
   1402,   4.80000019,    5.4000001
   1403,           5.,    5.4000001
   1404,   5.19999981,    5.4000001
   1405,    5.4000001,    5.4000001
   1406,    5.5999999,    5.4000001
   1407,   5.80000019,    5.4000001
   1408,           6.,    5.4000001
   1409,   6.19999981,    5.4000001
   1410,    6.4000001,    5.4000001
   1411,    6.5999999,    5.4000001
   1412,   6.80000019,    5.4000001
   1413,           7.,    5.4000001
   1414,   7.19999981,    5.4000001
   1415,    7.4000001,    5.4000001
   1416,    7.5999999,    5.4000001
   1417,   7.80000019,    5.4000001
   1418,           8.,    5.4000001
   1419,   8.19999981,    5.4000001
   1420,   8.39999962,    5.4000001
   1421,   8.60000038,    5.4000001
   1422,   8.80000019,    5.4000001
   1423,           9.,    5.4000001
   1424,   9.19999981,    5.4000001
   1425,   9.39999962,    5.4000001
   1426,   9.60000038,    5.4000001
   1427,   9.80000019,    5.4000001
   1428,          10.,    5.4000001
   1429,           0.,    5.5999999
   1430,  0.200000003,    5.5999999
   1431,  0.400000006,    5.5999999
   1432,  0.600000024,    5.5999999
   1433,  0.800000012,    5.5999999
   1434,           1.,    5.5999999
   1435,   1.20000005,    5.5999999
   1436,   1.39999998,    5.5999999
   1437,   1.60000002,    5.5999999
   1438,   1.79999995,    5.5999999
   1439,           2.,    5.5999999
   1440,   2.20000005,    5.5999999
   1441,    2.4000001,    5.5999999
   1442,    2.5999999,    5.5999999
   1443,   2.79999995,    5.5999999
   1444,           3.,    5.5999999
   1445,   3.20000005,    5.5999999
   1446,    3.4000001,    5.5999999
   1447,    3.5999999,    5.5999999
   1448,   3.79999995,    5.5999999
   1449,           4.,    5.5999999
   1450,   4.19999981,    5.5999999
   1451,    4.4000001,    5.5999999
   1452,    4.5999999,    5.5999999
   1453,   4.80000019,    5.5999999
   1454,           5.,    5.5999999
   1455,   5.19999981,    5.5999999
   1456,    5.4000001,    5.5999999
   1457,    5.5999999,    5.5999999
   1458,   5.80000019,    5.5999999
   1459,           6.,    5.5999999
   1460,   6.19999981,    5.5999999
   1461,    6.4000001,    5.5999999
   1462,    6.5999999,    5.5999999
   1463,   6.80000019,    5.5999999
   1464,           7.,    5.5999999
   1465,   7.19999981,    5.5999999
   1466,    7.4000001,    5.5999999
   1467,    7.5999999,    5.5999999
   1468,   7.80000019,    5.5999999
   1469,           8.,    5.5999999
   1470,   8.19999981,    5.5999999
   1471,   8.39999962,    5.5999999
   1472,   8.60000038,    5.5999999
   1473,   8.80000019,    5.5999999
   1474,           9.,    5.5999999
   1475,   9.19999981,    5.5999999
   1476,   9.39999962,    5.5999999
   1477,   9.60000038,    5.5999999
   1478,   9.80000019,    5.5999999
   1479,          10.,    5.5999999
   1480,           0.,   5.80000019
   1481,  0.200000003,   5.80000019
   1482,  0.400000006,   5.80000019
   1483,  0.600000024,   5.80000019
   1484,  0.800000012,   5.80000019
   1485,           1.,   5.80000019
   1486,   1.20000005,   5.80000019
   1487,   1.39999998,   5.80000019
   1488,   1.60000002,   5.80000019
   1489,   1.79999995,   5.80000019
   1490,           2.,   5.80000019
   1491,   2.20000005,   5.80000019
   1492,    2.4000001,   5.80000019
   1493,    2.5999999,   5.80000019
   1494,   2.79999995,   5.80000019
   1495,           3.,   5.80000019
   1496,   3.20000005,   5.80000019
   1497,    3.4000001,   5.80000019
   1498,    3.5999999,   5.80000019
   1499,   3.79999995,   5.80000019
   1500,           4.,   5.80000019
   1501,   4.19999981,   5.80000019
   1502,    4.4000001,   5.80000019
   1503,    4.5999999,   5.80000019
   1504,   4.80000019,   5.80000019
   1505,           5.,   5.80000019
   1506,   5.19999981,   5.80000019
   1507,    5.4000001,   5.80000019
   1508,    5.5999999,   5.80000019
   1509,   5.80000019,   5.80000019
   1510,           6.,   5.80000019
   1511,   6.19999981,   5.80000019
   1512,    6.4000001,   5.80000019
   1513,    6.5999999,   5.80000019
   1514,   6.80000019,   5.80000019
   1515,           7.,   5.80000019
   1516,   7.19999981,   5.80000019
   1517,    7.4000001,   5.80000019
   1518,    7.5999999,   5.80000019
   1519,   7.80000019,   5.80000019
   1520,           8.,   5.80000019
   1521,   8.19999981,   5.80000019
   1522,   8.39999962,   5.80000019
   1523,   8.60000038,   5.80000019
   1524,   8.80000019,   5.80000019
   1525,           9.,   5.80000019
   1526,   9.19999981,   5.80000019
   1527,   9.39999962,   5.80000019
   1528,   9.60000038,   5.80000019
   1529,   9.80000019,   5.80000019
   1530,          10.,   5.80000019
   1531,           0.,           6.
   1532,  0.200000003,           6.
   1533,  0.400000006,           6.
   1534,  0.600000024,           6.
   1535,  0.800000012,           6.
   1536,           1.,           6.
   1537,   1.20000005,           6.
   1538,   1.39999998,           6.
   1539,   1.60000002,           6.
   1540,   1.79999995,           6.
   1541,           2.,           6.
   1542,   2.20000005,           6.
   1543,    2.4000001,           6.
   1544,    2.5999999,           6.
   1545,   2.79999995,           6.
   1546,           3.,           6.
   1547,   3.20000005,           6.
   1548,    3.4000001,           6.
   1549,    3.5999999,           6.
   1550,   3.79999995,           6.
   1551,           4.,           6.
   1552,   4.19999981,           6.
   1553,    4.4000001,           6.
   1554,    4.5999999,           6.
   1555,   4.80000019,           6.
   1556,           5.,           6.
   1557,   5.19999981,           6.
   1558,    5.4000001,           6.
   1559,    5.5999999,           6.
   1560,   5.80000019,           6.
   1561,           6.,           6.
   1562,   6.19999981,           6.
   1563,    6.4000001,           6.
   1564,    6.5999999,           6.
   1565,   6.80000019,           6.
   1566,           7.,           6.
   1567,   7.19999981,           6.
   1568,    7.4000001,           6.
   1569,    7.5999999,           6.
   1570,   7.80000019,           6.
   1571,           8.,           6.
   1572,   8.19999981,           6.
   1573,   8.39999962,           6.
   1574,   8.60000038,           6.
   1575,   8.80000019,           6.
   1576,           9.,           6.
   1577,   9.19999981,           6.
   1578,   9.39999962,           6.
   1579,   9.60000038,           6.
   1580,   9.80000019,           6.
   1581,          10.,           6.
   1582,           0.,   6.19999981
   1583,  0.200000003,   6.19999981
   1584,  0.400000006,   6.19999981
   1585,  0.600000024,   6.19999981
   1586,  0.800000012,   6.19999981
   1587,           1.,   6.19999981
   1588,   1.20000005,   6.19999981
   1589,   1.39999998,   6.19999981
   1590,   1.60000002,   6.19999981
   1591,   1.79999995,   6.19999981
   1592,           2.,   6.19999981
   1593,   2.20000005,   6.19999981
   1594,    2.4000001,   6.19999981
   1595,    2.5999999,   6.19999981
   1596,   2.79999995,   6.19999981
   1597,           3.,   6.19999981
   1598,   3.20000005,   6.19999981
   1599,    3.4000001,   6.19999981
   1600,    3.5999999,   6.19999981
   1601,   3.79999995,   6.19999981
   1602,           4.,   6.19999981
   1603,   4.19999981,   6.19999981
   1604,    4.4000001,   6.19999981
   1605,    4.5999999,   6.19999981
   1606,   4.80000019,   6.19999981
   1607,           5.,   6.19999981
   1608,   5.19999981,   6.19999981
   1609,    5.4000001,   6.19999981
   1610,    5.5999999,   6.19999981
   1611,   5.80000019,   6.19999981
   1612,           6.,   6.19999981
   1613,   6.19999981,   6.19999981
   1614,    6.4000001,   6.19999981
   1615,    6.5999999,   6.19999981
   1616,   6.80000019,   6.19999981
   1617,           7.,   6.19999981
   1618,   7.19999981,   6.19999981
   1619,    7.4000001,   6.19999981
   1620,    7.5999999,   6.19999981
   1621,   7.80000019,   6.19999981
   1622,           8.,   6.19999981
   1623,   8.19999981,   6.19999981
   1624,   8.39999962,   6.19999981
   1625,   8.60000038,   6.19999981
   1626,   8.80000019,   6.19999981
   1627,           9.,   6.19999981
   1628,   9.19999981,   6.19999981
   1629,   9.39999962,   6.19999981
   1630,   9.60000038,   6.19999981
   1631,   9.80000019,   6.19999981
   1632,          10.,   6.19999981
   1633,           0.,    6.4000001
   1634,  0.200000003,    6.4000001
   1635,  0.400000006,    6.4000001
   1636,  0.600000024,    6.4000001
   1637,  0.800000012,    6.4000001
   1638,           1.,    6.4000001
   1639,   1.20000005,    6.4000001
   1640,   1.39999998,    6.4000001
   1641,   1.60000002,    6.4000001
   1642,   1.79999995,    6.4000001
   1643,           2.,    6.4000001
   1644,   2.20000005,    6.4000001
   1645,    2.4000001,    6.4000001
   1646,    2.5999999,    6.4000001
   1647,   2.79999995,    6.4000001
   1648,           3.,    6.4000001
   1649,   3.20000005,    6.4000001
   1650,    3.4000001,    6.4000001
   1651,    3.5999999,    6.4000001
   1652,   3.79999995,    6.4000001
   1653,           4.,    6.4000001
   1654,   4.19999981,    6.4000001
   1655,    4.4000001,    6.4000001
   1656,    4.5999999,    6.4000001
   1657,   4.80000019,    6.4000001
   1658,           5.,    6.4000001
   1659,   5.19999981,    6.4000001
   1660,    5.4000001,    6.4000001
   1661,    5.5999999,    6.4000001
   1662,   5.80000019,    6.4000001
   1663,           6.,    6.4000001
   1664,   6.19999981,    6.4000001
   1665,    6.4000001,    6.4000001
   1666,    6.5999999,    6.4000001
   1667,   6.80000019,    6.4000001
   1668,           7.,    6.4000001
   1669,   7.19999981,    6.4000001
   1670,    7.4000001,    6.4000001
   1671,    7.5999999,    6.4000001
   1672,   7.80000019,    6.4000001
   1673,           8.,    6.4000001
   1674,   8.19999981,    6.4000001
   1675,   8.39999962,    6.4000001
   1676,   8.60000038,    6.4000001
   1677,   8.80000019,    6.4000001
   1678,           9.,    6.4000001
   1679,   9.19999981,    6.4000001
   1680,   9.39999962,    6.4000001
   1681,   9.60000038,    6.4000001
   1682,   9.80000019,    6.4000001
   1683,          10.,    6.4000001
   1684,           0.,    6.5999999
   1685,  0.200000003,    6.5999999
   1686,  0.400000006,    6.5999999
   1687,  0.600000024,    6.5999999
   1688,  0.800000012,    6.5999999
   1689,           1.,    6.5999999
   1690,   1.20000005,    6.5999999
   1691,   1.39999998,    6.5999999
   1692,   1.60000002,    6.5999999
   1693,   1.79999995,    6.5999999
   1694,           2.,    6.5999999
   1695,   2.20000005,    6.5999999
   1696,    2.4000001,    6.5999999
   1697,    2.5999999,    6.5999999
   1698,   2.79999995,    6.5999999
   1699,           3.,    6.5999999
   1700,   3.20000005,    6.5999999
   1701,    3.4000001,    6.5999999
   1702,    3.5999999,    6.5999999
   1703,   3.79999995,    6.5999999
   1704,           4.,    6.5999999
   1705,   4.19999981,    6.5999999
   1706,    4.4000001,    6.5999999
   1707,    4.5999999,    6.5999999
   1708,   4.80000019,    6.5999999
   1709,           5.,    6.5999999
   1710,   5.19999981,    6.5999999
   1711,    5.4000001,    6.5999999
   1712,    5.5999999,    6.5999999
   1713,   5.80000019,    6.5999999
   1714,           6.,    6.5999999
   1715,   6.19999981,    6.5999999
   1716,    6.4000001,    6.5999999
   1717,    6.5999999,    6.5999999
   1718,   6.80000019,    6.5999999
   1719,           7.,    6.5999999
   1720,   7.19999981,    6.5999999
   1721,    7.4000001,    6.5999999
   1722,    7.5999999,    6.5999999
   1723,   7.80000019,    6.5999999
   1724,           8.,    6.5999999
   1725,   8.19999981,    6.5999999
   1726,   8.39999962,    6.5999999
   1727,   8.60000038,    6.5999999
   1728,   8.80000019,    6.5999999
   1729,           9.,    6.5999999
   1730,   9.19999981,    6.5999999
   1731,   9.39999962,    6.5999999
   1732,   9.60000038,    6.5999999
   1733,   9.80000019,    6.5999999
   1734,          10.,    6.5999999
   1735,           0.,   6.80000019
   1736,  0.200000003,   6.80000019
   1737,  0.400000006,   6.80000019
   1738,  0.600000024,   6.80000019
   1739,  0.800000012,   6.80000019
   1740,           1.,   6.80000019
   1741,   1.20000005,   6.80000019
   1742,   1.39999998,   6.80000019
   1743,   1.60000002,   6.80000019
   1744,   1.79999995,   6.80000019
   1745,           2.,   6.80000019
   1746,   2.20000005,   6.80000019
   1747,    2.4000001,   6.80000019
   1748,    2.5999999,   6.80000019
   1749,   2.79999995,   6.80000019
   1750,           3.,   6.80000019
   1751,   3.20000005,   6.80000019
   1752,    3.4000001,   6.80000019
   1753,    3.5999999,   6.80000019
   1754,   3.79999995,   6.80000019
   1755,           4.,   6.80000019
   1756,   4.19999981,   6.80000019
   1757,    4.4000001,   6.80000019
   1758,    4.5999999,   6.80000019
   1759,   4.80000019,   6.80000019
   1760,           5.,   6.80000019
   1761,   5.19999981,   6.80000019
   1762,    5.4000001,   6.80000019
   1763,    5.5999999,   6.80000019
   1764,   5.80000019,   6.80000019
   1765,           6.,   6.80000019
   1766,   6.19999981,   6.80000019
   1767,    6.4000001,   6.80000019
   1768,    6.5999999,   6.80000019
   1769,   6.80000019,   6.80000019
   1770,           7.,   6.80000019
   1771,   7.19999981,   6.80000019
   1772,    7.4000001,   6.80000019
   1773,    7.5999999,   6.80000019
   1774,   7.80000019,   6.80000019
   1775,           8.,   6.80000019
   1776,   8.19999981,   6.80000019
   1777,   8.39999962,   6.80000019
   1778,   8.60000038,   6.80000019
   1779,   8.80000019,   6.80000019
   1780,           9.,   6.80000019
   1781,   9.19999981,   6.80000019
   1782,   9.39999962,   6.80000019
   1783,   9.60000038,   6.80000019
   1784,   9.80000019,   6.80000019
   1785,          10.,   6.80000019
   1786,           0.,           7.
   1787,  0.200000003,           7.
   1788,  0.400000006,           7.
   1789,  0.600000024,           7.
   1790,  0.800000012,           7.
   1791,           1.,           7.
   1792,   1.20000005,           7.
   1793,   1.39999998,           7.
   1794,   1.60000002,           7.
   1795,   1.79999995,           7.
   1796,           2.,           7.
   1797,   2.20000005,           7.
   1798,    2.4000001,           7.
   1799,    2.5999999,           7.
   1800,   2.79999995,           7.
   1801,           3.,           7.
   1802,   3.20000005,           7.
   1803,    3.4000001,           7.
   1804,    3.5999999,           7.
   1805,   3.79999995,           7.
   1806,           4.,           7.
   1807,   4.19999981,           7.
   1808,    4.4000001,           7.
   1809,    4.5999999,           7.
   1810,   4.80000019,           7.
   1811,           5.,           7.
   1812,   5.19999981,           7.
   1813,    5.4000001,           7.
   1814,    5.5999999,           7.
   1815,   5.80000019,           7.
   1816,           6.,           7.
   1817,   6.19999981,           7.
   1818,    6.4000001,           7.
   1819,    6.5999999,           7.
   1820,   6.80000019,           7.
   1821,           7.,           7.
   1822,   7.19999981,           7.
   1823,    7.4000001,           7.
   1824,    7.5999999,           7.
   1825,   7.80000019,           7.
   1826,           8.,           7.
   1827,   8.19999981,           7.
   1828,   8.39999962,           7.
   1829,   8.60000038,           7.
   1830,   8.80000019,           7.
   1831,           9.,           7.
   1832,   9.19999981,           7.
   1833,   9.39999962,           7.
   1834,   9.60000038,           7.
   1835,   9.80000019,           7.
   1836,          10.,           7.
   1837,           0.,   7.19999981
   1838,  0.200000003,   7.19999981
   1839,  0.400000006,   7.19999981
   1840,  0.600000024,   7.19999981
   1841,  0.800000012,   7.19999981
   1842,           1.,   7.19999981
   1843,   1.20000005,   7.19999981
   1844,   1.39999998,   7.19999981
   1845,   1.60000002,   7.19999981
   1846,   1.79999995,   7.19999981
   1847,           2.,   7.19999981
   1848,   2.20000005,   7.19999981
   1849,    2.4000001,   7.19999981
   1850,    2.5999999,   7.19999981
   1851,   2.79999995,   7.19999981
   1852,           3.,   7.19999981
   1853,   3.20000005,   7.19999981
   1854,    3.4000001,   7.19999981
   1855,    3.5999999,   7.19999981
   1856,   3.79999995,   7.19999981
   1857,           4.,   7.19999981
   1858,   4.19999981,   7.19999981
   1859,    4.4000001,   7.19999981
   1860,    4.5999999,   7.19999981
   1861,   4.80000019,   7.19999981
   1862,           5.,   7.19999981
   1863,   5.19999981,   7.19999981
   1864,    5.4000001,   7.19999981
   1865,    5.5999999,   7.19999981
   1866,   5.80000019,   7.19999981
   1867,           6.,   7.19999981
   1868,   6.19999981,   7.19999981
   1869,    6.4000001,   7.19999981
   1870,    6.5999999,   7.19999981
   1871,   6.80000019,   7.19999981
   1872,           7.,   7.19999981
   1873,   7.19999981,   7.19999981
   1874,    7.4000001,   7.19999981
   1875,    7.5999999,   7.19999981
   1876,   7.80000019,   7.19999981
   1877,           8.,   7.19999981
   1878,   8.19999981,   7.19999981
   1879,   8.39999962,   7.19999981
   1880,   8.60000038,   7.19999981
   1881,   8.80000019,   7.19999981
   1882,           9.,   7.19999981
   1883,   9.19999981,   7.19999981
   1884,   9.39999962,   7.19999981
   1885,   9.60000038,   7.19999981
   1886,   9.80000019,   7.19999981
   1887,          10.,   7.19999981
   1888,           0.,    7.4000001
   1889,  0.200000003,    7.4000001
   1890,  0.400000006,    7.4000001
   1891,  0.600000024,    7.4000001
   1892,  0.800000012,    7.4000001
   1893,           1.,    7.4000001
   1894,   1.20000005,    7.4000001
   1895,   1.39999998,    7.4000001
   1896,   1.60000002,    7.4000001
   1897,   1.79999995,    7.4000001
   1898,           2.,    7.4000001
   1899,   2.20000005,    7.4000001
   1900,    2.4000001,    7.4000001
   1901,    2.5999999,    7.4000001
   1902,   2.79999995,    7.4000001
   1903,           3.,    7.4000001
   1904,   3.20000005,    7.4000001
   1905,    3.4000001,    7.4000001
   1906,    3.5999999,    7.4000001
   1907,   3.79999995,    7.4000001
   1908,           4.,    7.4000001
   1909,   4.19999981,    7.4000001
   1910,    4.4000001,    7.4000001
   1911,    4.5999999,    7.4000001
   1912,   4.80000019,    7.4000001
   1913,           5.,    7.4000001
   1914,   5.19999981,    7.4000001
   1915,    5.4000001,    7.4000001
   1916,    5.5999999,    7.4000001
   1917,   5.80000019,    7.4000001
   1918,           6.,    7.4000001
   1919,   6.19999981,    7.4000001
   1920,    6.4000001,    7.4000001
   1921,    6.5999999,    7.4000001
   1922,   6.80000019,    7.4000001
   1923,           7.,    7.4000001
   1924,   7.19999981,    7.4000001
   1925,    7.4000001,    7.4000001
   1926,    7.5999999,    7.4000001
   1927,   7.80000019,    7.4000001
   1928,           8.,    7.4000001
   1929,   8.19999981,    7.4000001
   1930,   8.39999962,    7.4000001
   1931,   8.60000038,    7.4000001
   1932,   8.80000019,    7.4000001
   1933,           9.,    7.4000001
   1934,   9.19999981,    7.4000001
   1935,   9.39999962,    7.4000001
   1936,   9.60000038,    7.4000001
   1937,   9.80000019,    7.4000001
   1938,          10.,    7.4000001
   1939,           0.,    7.5999999
   1940,  0.200000003,    7.5999999
   1941,  0.400000006,    7.5999999
   1942,  0.600000024,    7.5999999
   1943,  0.800000012,    7.5999999
   1944,           1.,    7.5999999
   1945,   1.20000005,    7.5999999
   1946,   1.39999998,    7.5999999
   1947,   1.60000002,    7.5999999
   1948,   1.79999995,    7.5999999
   1949,           2.,    7.5999999
   1950,   2.20000005,    7.5999999
   1951,    2.4000001,    7.5999999
   1952,    2.5999999,    7.5999999
   1953,   2.79999995,    7.5999999
   1954,           3.,    7.5999999
   1955,   3.20000005,    7.5999999
   1956,    3.4000001,    7.5999999
   1957,    3.5999999,    7.5999999
   1958,   3.79999995,    7.5999999
   1959,           4.,    7.5999999
   1960,   4.19999981,    7.5999999
   1961,    4.4000001,    7.5999999
   1962,    4.5999999,    7.5999999
   1963,   4.80000019,    7.5999999
   1964,           5.,    7.5999999
   1965,   5.19999981,    7.5999999
   1966,    5.4000001,    7.5999999
   1967,    5.5999999,    7.5999999
   1968,   5.80000019,    7.5999999
   1969,           6.,    7.5999999
   1970,   6.19999981,    7.5999999
   1971,    6.4000001,    7.5999999
   1972,    6.5999999,    7.5999999
   1973,   6.80000019,    7.5999999
   1974,           7.,    7.5999999
   1975,   7.19999981,    7.5999999
   1976,    7.4000001,    7.5999999
   1977,    7.5999999,    7.5999999
   1978,   7.80000019,    7.5999999
   1979,           8.,    7.5999999
   1980,   8.19999981,    7.5999999
   1981,   8.39999962,    7.5999999
   1982,   8.60000038,    7.5999999
   1983,   8.80000019,    7.5999999
   1984,           9.,    7.5999999
   1985,   9.19999981,    7.5999999
   1986,   9.39999962,    7.5999999
   1987,   9.60000038,    7.5999999
   1988,   9.80000019,    7.5999999
   1989,          10.,    7.5999999
   1990,           0.,   7.80000019
   1991,  0.200000003,   7.80000019
   1992,  0.400000006,   7.80000019
   1993,  0.600000024,   7.80000019
   1994,  0.800000012,   7.80000019
   1995,           1.,   7.80000019
   1996,   1.20000005,   7.80000019
   1997,   1.39999998,   7.80000019
   1998,   1.60000002,   7.80000019
   1999,   1.79999995,   7.80000019
   2000,           2.,   7.80000019
   2001,   2.20000005,   7.80000019
   2002,    2.4000001,   7.80000019
   2003,    2.5999999,   7.80000019
   2004,   2.79999995,   7.80000019
   2005,           3.,   7.80000019
   2006,   3.20000005,   7.80000019
   2007,    3.4000001,   7.80000019
   2008,    3.5999999,   7.80000019
   2009,   3.79999995,   7.80000019
   2010,           4.,   7.80000019
   2011,   4.19999981,   7.80000019
   2012,    4.4000001,   7.80000019
   2013,    4.5999999,   7.80000019
   2014,   4.80000019,   7.80000019
   2015,           5.,   7.80000019
   2016,   5.19999981,   7.80000019
   2017,    5.4000001,   7.80000019
   2018,    5.5999999,   7.80000019
   2019,   5.80000019,   7.80000019
   2020,           6.,   7.80000019
   2021,   6.19999981,   7.80000019
   2022,    6.4000001,   7.80000019
   2023,    6.5999999,   7.80000019
   2024,   6.80000019,   7.80000019
   2025,           7.,   7.80000019
   2026,   7.19999981,   7.80000019
   2027,    7.4000001,   7.80000019
   2028,    7.5999999,   7.80000019
   2029,   7.80000019,   7.80000019
   2030,           8.,   7.80000019
   2031,   8.19999981,   7.80000019
   2032,   8.39999962,   7.80000019
   2033,   8.60000038,   7.80000019
   2034,   8.80000019,   7.80000019
   2035,           9.,   7.80000019
   2036,   9.19999981,   7.80000019
   2037,   9.39999962,   7.80000019
   2038,   9.60000038,   7.80000019
   2039,   9.80000019,   7.80000019
   2040,          10.,   7.80000019
   2041,           0.,           8.
   2042,  0.200000003,           8.
   2043,  0.400000006,           8.
   2044,  0.600000024,           8.
   2045,  0.800000012,           8.
   2046,           1.,           8.
   2047,   1.20000005,           8.
   2048,   1.39999998,           8.
   2049,   1.60000002,           8.
   2050,   1.79999995,           8.
   2051,           2.,           8.
   2052,   2.20000005,           8.
   2053,    2.4000001,           8.
   2054,    2.5999999,           8.
   2055,   2.79999995,           8.
   2056,           3.,           8.
   2057,   3.20000005,           8.
   2058,    3.4000001,           8.
   2059,    3.5999999,           8.
   2060,   3.79999995,           8.
   2061,           4.,           8.
   2062,   4.19999981,           8.
   2063,    4.4000001,           8.
   2064,    4.5999999,           8.
   2065,   4.80000019,           8.
   2066,           5.,           8.
   2067,   5.19999981,           8.
   2068,    5.4000001,           8.
   2069,    5.5999999,           8.
   2070,   5.80000019,           8.
   2071,           6.,           8.
   2072,   6.19999981,           8.
   2073,    6.4000001,           8.
   2074,    6.5999999,           8.
   2075,   6.80000019,           8.
   2076,           7.,           8.
   2077,   7.19999981,           8.
   2078,    7.4000001,           8.
   2079,    7.5999999,           8.
   2080,   7.80000019,           8.
   2081,           8.,           8.
   2082,   8.19999981,           8.
   2083,   8.39999962,           8.
   2084,   8.60000038,           8.
   2085,   8.80000019,           8.
   2086,           9.,           8.
   2087,   9.19999981,           8.
   2088,   9.39999962,           8.
   2089,   9.60000038,           8.
   2090,   9.80000019,           8.
   2091,          10.,           8.
   2092,           0.,   8.19999981
   2093,  0.200000003,   8.19999981
   2094,  0.400000006,   8.19999981
   2095,  0.600000024,   8.19999981
   2096,  0.800000012,   8.19999981
   2097,           1.,   8.19999981
   2098,   1.20000005,   8.19999981
   2099,   1.39999998,   8.19999981
   2100,   1.60000002,   8.19999981
   2101,   1.79999995,   8.19999981
   2102,           2.,   8.19999981
   2103,   2.20000005,   8.19999981
   2104,    2.4000001,   8.19999981
   2105,    2.5999999,   8.19999981
   2106,   2.79999995,   8.19999981
   2107,           3.,   8.19999981
   2108,   3.20000005,   8.19999981
   2109,    3.4000001,   8.19999981
   2110,    3.5999999,   8.19999981
   2111,   3.79999995,   8.19999981
   2112,           4.,   8.19999981
   2113,   4.19999981,   8.19999981
   2114,    4.4000001,   8.19999981
   2115,    4.5999999,   8.19999981
   2116,   4.80000019,   8.19999981
   2117,           5.,   8.19999981
   2118,   5.19999981,   8.19999981
   2119,    5.4000001,   8.19999981
   2120,    5.5999999,   8.19999981
   2121,   5.80000019,   8.19999981
   2122,           6.,   8.19999981
   2123,   6.19999981,   8.19999981
   2124,    6.4000001,   8.19999981
   2125,    6.5999999,   8.19999981
   2126,   6.80000019,   8.19999981
   2127,           7.,   8.19999981
   2128,   7.19999981,   8.19999981
   2129,    7.4000001,   8.19999981
   2130,    7.5999999,   8.19999981
   2131,   7.80000019,   8.19999981
   2132,           8.,   8.19999981
   2133,   8.19999981,   8.19999981
   2134,   8.39999962,   8.19999981
   2135,   8.60000038,   8.19999981
   2136,   8.80000019,   8.19999981
   2137,           9.,   8.19999981
   2138,   9.19999981,   8.19999981
   2139,   9.39999962,   8.19999981
   2140,   9.60000038,   8.19999981
   2141,   9.80000019,   8.19999981
   2142,          10.,   8.19999981
   2143,           0.,   8.39999962
   2144,  0.200000003,   8.39999962
   2145,  0.400000006,   8.39999962
   2146,  0.600000024,   8.39999962
   2147,  0.800000012,   8.39999962
   2148,           1.,   8.39999962
   2149,   1.20000005,   8.39999962
   2150,   1.39999998,   8.39999962
   2151,   1.60000002,   8.39999962
   2152,   1.79999995,   8.39999962
   2153,           2.,   8.39999962
   2154,   2.20000005,   8.39999962
   2155,    2.4000001,   8.39999962
   2156,    2.5999999,   8.39999962
   2157,   2.79999995,   8.39999962
   2158,           3.,   8.39999962
   2159,   3.20000005,   8.39999962
   2160,    3.4000001,   8.39999962
   2161,    3.5999999,   8.39999962
   2162,   3.79999995,   8.39999962
   2163,           4.,   8.39999962
   2164,   4.19999981,   8.39999962
   2165,    4.4000001,   8.39999962
   2166,    4.5999999,   8.39999962
   2167,   4.80000019,   8.39999962
   2168,           5.,   8.39999962
   2169,   5.19999981,   8.39999962
   2170,    5.4000001,   8.39999962
   2171,    5.5999999,   8.39999962
   2172,   5.80000019,   8.39999962
   2173,           6.,   8.39999962
   2174,   6.19999981,   8.39999962
   2175,    6.4000001,   8.39999962
   2176,    6.5999999,   8.39999962
   2177,   6.80000019,   8.39999962
   2178,           7.,   8.39999962
   2179,   7.19999981,   8.39999962
   2180,    7.4000001,   8.39999962
   2181,    7.5999999,   8.39999962
   2182,   7.80000019,   8.39999962
   2183,           8.,   8.39999962
   2184,   8.19999981,   8.39999962
   2185,   8.39999962,   8.39999962
   2186,   8.60000038,   8.39999962
   2187,   8.80000019,   8.39999962
   2188,           9.,   8.39999962
   2189,   9.19999981,   8.39999962
   2190,   9.39999962,   8.39999962
   2191,   9.60000038,   8.39999962
   2192,   9.80000019,   8.39999962
   2193,          10.,   8.39999962
   2194,           0.,   8.60000038
   2195,  0.200000003,   8.60000038
   2196,  0.400000006,   8.60000038
   2197,  0.600000024,   8.60000038
   2198,  0.800000012,   8.60000038
   2199,           1.,   8.60000038
   2200,   1.20000005,   8.60000038
   2201,   1.39999998,   8.60000038
   2202,   1.60000002,   8.60000038
   2203,   1.79999995,   8.60000038
   2204,           2.,   8.60000038
   2205,   2.20000005,   8.60000038
   2206,    2.4000001,   8.60000038
   2207,    2.5999999,   8.60000038
   2208,   2.79999995,   8.60000038
   2209,           3.,   8.60000038
   2210,   3.20000005,   8.60000038
   2211,    3.4000001,   8.60000038
   2212,    3.5999999,   8.60000038
   2213,   3.79999995,   8.60000038
   2214,           4.,   8.60000038
   2215,   4.19999981,   8.60000038
   2216,    4.4000001,   8.60000038
   2217,    4.5999999,   8.60000038
   2218,   4.80000019,   8.60000038
   2219,           5.,   8.60000038
   2220,   5.19999981,   8.60000038
   2221,    5.4000001,   8.60000038
   2222,    5.5999999,   8.60000038
   2223,   5.80000019,   8.60000038
   2224,           6.,   8.60000038
   2225,   6.19999981,   8.60000038
   2226,    6.4000001,   8.60000038
   2227,    6.5999999,   8.60000038
   2228,   6.80000019,   8.60000038
   2229,           7.,   8.60000038
   2230,   7.19999981,   8.60000038
   2231,    7.4000001,   8.60000038
   2232,    7.5999999,   8.60000038
   2233,   7.80000019,   8.60000038
   2234,           8.,   8.60000038
   2235,   8.19999981,   8.60000038
   2236,   8.39999962,   8.60000038
   2237,   8.60000038,   8.60000038
   2238,   8.80000019,   8.60000038
   2239,           9.,   8.60000038
   2240,   9.19999981,   8.60000038
   2241,   9.39999962,   8.60000038
   2242,   9.60000038,   8.60000038
   2243,   9.80000019,   8.60000038
   2244,          10.,   8.60000038
   2245,           0.,   8.80000019
   2246,  0.200000003,   8.80000019
   2247,  0.400000006,   8.80000019
   2248,  0.600000024,   8.80000019
   2249,  0.800000012,   8.80000019
   2250,           1.,   8.80000019
   2251,   1.20000005,   8.80000019
   2252,   1.39999998,   8.80000019
   2253,   1.60000002,   8.80000019
   2254,   1.79999995,   8.80000019
   2255,           2.,   8.80000019
   2256,   2.20000005,   8.80000019
   2257,    2.4000001,   8.80000019
   2258,    2.5999999,   8.80000019
   2259,   2.79999995,   8.80000019
   2260,           3.,   8.80000019
   2261,   3.20000005,   8.80000019
   2262,    3.4000001,   8.80000019
   2263,    3.5999999,   8.80000019
   2264,   3.79999995,   8.80000019
   2265,           4.,   8.80000019
   2266,   4.19999981,   8.80000019
   2267,    4.4000001,   8.80000019
   2268,    4.5999999,   8.80000019
   2269,   4.80000019,   8.80000019
   2270,           5.,   8.80000019
   2271,   5.19999981,   8.80000019
   2272,    5.4000001,   8.80000019
   2273,    5.5999999,   8.80000019
   2274,   5.80000019,   8.80000019
   2275,           6.,   8.80000019
   2276,   6.19999981,   8.80000019
   2277,    6.4000001,   8.80000019
   2278,    6.5999999,   8.80000019
   2279,   6.80000019,   8.80000019
   2280,           7.,   8.80000019
   2281,   7.19999981,   8.80000019
   2282,    7.4000001,   8.80000019
   2283,    7.5999999,   8.80000019
   2284,   7.80000019,   8.80000019
   2285,           8.,   8.80000019
   2286,   8.19999981,   8.80000019
   2287,   8.39999962,   8.80000019
   2288,   8.60000038,   8.80000019
   2289,   8.80000019,   8.80000019
   2290,           9.,   8.80000019
   2291,   9.19999981,   8.80000019
   2292,   9.39999962,   8.80000019
   2293,   9.60000038,   8.80000019
   2294,   9.80000019,   8.80000019
   2295,          10.,   8.80000019
   2296,           0.,           9.
   2297,  0.200000003,           9.
   2298,  0.400000006,           9.
   2299,  0.600000024,           9.
   2300,  0.800000012,           9.
   2301,           1.,           9.
   2302,   1.20000005,           9.
   2303,   1.39999998,           9.
   2304,   1.60000002,           9.
   2305,   1.79999995,           9.
   2306,           2.,           9.
   2307,   2.20000005,           9.
   2308,    2.4000001,           9.
   2309,    2.5999999,           9.
   2310,   2.79999995,           9.
   2311,           3.,           9.
   2312,   3.20000005,           9.
   2313,    3.4000001,           9.
   2314,    3.5999999,           9.
   2315,   3.79999995,           9.
   2316,           4.,           9.
   2317,   4.19999981,           9.
   2318,    4.4000001,           9.
   2319,    4.5999999,           9.
   2320,   4.80000019,           9.
   2321,           5.,           9.
   2322,   5.19999981,           9.
   2323,    5.4000001,           9.
   2324,    5.5999999,           9.
   2325,   5.80000019,           9.
   2326,           6.,           9.
   2327,   6.19999981,           9.
   2328,    6.4000001,           9.
   2329,    6.5999999,           9.
   2330,   6.80000019,           9.
   2331,           7.,           9.
   2332,   7.19999981,           9.
   2333,    7.4000001,           9.
   2334,    7.5999999,           9.
   2335,   7.80000019,           9.
   2336,           8.,           9.
   2337,   8.19999981,           9.
   2338,   8.39999962,           9.
   2339,   8.60000038,           9.
   2340,   8.80000019,           9.
   2341,           9.,           9.
   2342,   9.19999981,           9.
   2343,   9.39999962,           9.
   2344,   9.60000038,           9.
   2345,   9.80000019,           9.
   2346,          10.,           9.
   2347,           0.,   9.19999981
   2348,  0.200000003,   9.19999981
   2349,  0.400000006,   9.19999981
   2350,  0.600000024,   9.19999981
   2351,  0.800000012,   9.19999981
   2352,           1.,   9.19999981
   2353,   1.20000005,   9.19999981
   2354,   1.39999998,   9.19999981
   2355,   1.60000002,   9.19999981
   2356,   1.79999995,   9.19999981
   2357,           2.,   9.19999981
   2358,   2.20000005,   9.19999981
   2359,    2.4000001,   9.19999981
   2360,    2.5999999,   9.19999981
   2361,   2.79999995,   9.19999981
   2362,           3.,   9.19999981
   2363,   3.20000005,   9.19999981
   2364,    3.4000001,   9.19999981
   2365,    3.5999999,   9.19999981
   2366,   3.79999995,   9.19999981
   2367,           4.,   9.19999981
   2368,   4.19999981,   9.19999981
   2369,    4.4000001,   9.19999981
   2370,    4.5999999,   9.19999981
   2371,   4.80000019,   9.19999981
   2372,           5.,   9.19999981
   2373,   5.19999981,   9.19999981
   2374,    5.4000001,   9.19999981
   2375,    5.5999999,   9.19999981
   2376,   5.80000019,   9.19999981
   2377,           6.,   9.19999981
   2378,   6.19999981,   9.19999981
   2379,    6.4000001,   9.19999981
   2380,    6.5999999,   9.19999981
   2381,   6.80000019,   9.19999981
   2382,           7.,   9.19999981
   2383,   7.19999981,   9.19999981
   2384,    7.4000001,   9.19999981
   2385,    7.5999999,   9.19999981
   2386,   7.80000019,   9.19999981
   2387,           8.,   9.19999981
   2388,   8.19999981,   9.19999981
   2389,   8.39999962,   9.19999981
   2390,   8.60000038,   9.19999981
   2391,   8.80000019,   9.19999981
   2392,           9.,   9.19999981
   2393,   9.19999981,   9.19999981
   2394,   9.39999962,   9.19999981
   2395,   9.60000038,   9.19999981
   2396,   9.80000019,   9.19999981
   2397,          10.,   9.19999981
   2398,           0.,   9.39999962
   2399,  0.200000003,   9.39999962
   2400,  0.400000006,   9.39999962
   2401,  0.600000024,   9.39999962
   2402,  0.800000012,   9.39999962
   2403,           1.,   9.39999962
   2404,   1.20000005,   9.39999962
   2405,   1.39999998,   9.39999962
   2406,   1.60000002,   9.39999962
   2407,   1.79999995,   9.39999962
   2408,           2.,   9.39999962
   2409,   2.20000005,   9.39999962
   2410,    2.4000001,   9.39999962
   2411,    2.5999999,   9.39999962
   2412,   2.79999995,   9.39999962
   2413,           3.,   9.39999962
   2414,   3.20000005,   9.39999962
   2415,    3.4000001,   9.39999962
   2416,    3.5999999,   9.39999962
   2417,   3.79999995,   9.39999962
   2418,           4.,   9.39999962
   2419,   4.19999981,   9.39999962
   2420,    4.4000001,   9.39999962
   2421,    4.5999999,   9.39999962
   2422,   4.80000019,   9.39999962
   2423,           5.,   9.39999962
   2424,   5.19999981,   9.39999962
   2425,    5.4000001,   9.39999962
   2426,    5.5999999,   9.39999962
   2427,   5.80000019,   9.39999962
   2428,           6.,   9.39999962
   2429,   6.19999981,   9.39999962
   2430,    6.4000001,   9.39999962
   2431,    6.5999999,   9.39999962
   2432,   6.80000019,   9.39999962
   2433,           7.,   9.39999962
   2434,   7.19999981,   9.39999962
   2435,    7.4000001,   9.39999962
   2436,    7.5999999,   9.39999962
   2437,   7.80000019,   9.39999962
   2438,           8.,   9.39999962
   2439,   8.19999981,   9.39999962
   2440,   8.39999962,   9.39999962
   2441,   8.60000038,   9.39999962
   2442,   8.80000019,   9.39999962
   2443,           9.,   9.39999962
   2444,   9.19999981,   9.39999962
   2445,   9.39999962,   9.39999962
   2446,   9.60000038,   9.39999962
   2447,   9.80000019,   9.39999962
   2448,          10.,   9.39999962
   2449,           0.,   9.60000038
   2450,  0.200000003,   9.60000038
   2451,  0.400000006,   9.60000038
   2452,  0.600000024,   9.60000038
   2453,  0.800000012,   9.60000038
   2454,           1.,   9.60000038
   2455,   1.20000005,   9.60000038
   2456,   1.39999998,   9.60000038
   2457,   1.60000002,   9.60000038
   2458,   1.79999995,   9.60000038
   2459,           2.,   9.60000038
   2460,   2.20000005,   9.60000038
   2461,    2.4000001,   9.60000038
   2462,    2.5999999,   9.60000038
   2463,   2.79999995,   9.60000038
   2464,           3.,   9.60000038
   2465,   3.20000005,   9.60000038
   2466,    3.4000001,   9.60000038
   2467,    3.5999999,   9.60000038
   2468,   3.79999995,   9.60000038
   2469,           4.,   9.60000038
   2470,   4.19999981,   9.60000038
   2471,    4.4000001,   9.60000038
   2472,    4.5999999,   9.60000038
   2473,   4.80000019,   9.60000038
   2474,           5.,   9.60000038
   2475,   5.19999981,   9.60000038
   2476,    5.4000001,   9.60000038
   2477,    5.5999999,   9.60000038
   2478,   5.80000019,   9.60000038
   2479,           6.,   9.60000038
   2480,   6.19999981,   9.60000038
   2481,    6.4000001,   9.60000038
   2482,    6.5999999,   9.60000038
   2483,   6.80000019,   9.60000038
   2484,           7.,   9.60000038
   2485,   7.19999981,   9.60000038
   2486,    7.4000001,   9.60000038
   2487,    7.5999999,   9.60000038
   2488,   7.80000019,   9.60000038
   2489,           8.,   9.60000038
   2490,   8.19999981,   9.60000038
   2491,   8.39999962,   9.60000038
   2492,   8.60000038,   9.60000038
   2493,   8.80000019,   9.60000038
   2494,           9.,   9.60000038
   2495,   9.19999981,   9.60000038
   2496,   9.39999962,   9.60000038
   2497,   9.60000038,   9.60000038
   2498,   9.80000019,   9.60000038
   2499,          10.,   9.60000038
   2500,           0.,   9.80000019
   2501,  0.200000003,   9.80000019
   2502,  0.400000006,   9.80000019
   2503,  0.600000024,   9.80000019
   2504,  0.800000012,   9.80000019
   2505,           1.,   9.80000019
   2506,   1.20000005,   9.80000019
   2507,   1.39999998,   9.80000019
   2508,   1.60000002,   9.80000019
   2509,   1.79999995,   9.80000019
   2510,           2.,   9.80000019
   2511,   2.20000005,   9.80000019
   2512,    2.4000001,   9.80000019
   2513,    2.5999999,   9.80000019
   2514,   2.79999995,   9.80000019
   2515,           3.,   9.80000019
   2516,   3.20000005,   9.80000019
   2517,    3.4000001,   9.80000019
   2518,    3.5999999,   9.80000019
   2519,   3.79999995,   9.80000019
   2520,           4.,   9.80000019
   2521,   4.19999981,   9.80000019
   2522,    4.4000001,   9.80000019
   2523,    4.5999999,   9.80000019
   2524,   4.80000019,   9.80000019
   2525,           5.,   9.80000019
   2526,   5.19999981,   9.80000019
   2527,    5.4000001,   9.80000019
   2528,    5.5999999,   9.80000019
   2529,   5.80000019,   9.80000019
   2530,           6.,   9.80000019
   2531,   6.19999981,   9.80000019
   2532,    6.4000001,   9.80000019
   2533,    6.5999999,   9.80000019
   2534,   6.80000019,   9.80000019
   2535,           7.,   9.80000019
   2536,   7.19999981,   9.80000019
   2537,    7.4000001,   9.80000019
   2538,    7.5999999,   9.80000019
   2539,   7.80000019,   9.80000019
   2540,           8.,   9.80000019
   2541,   8.19999981,   9.80000019
   2542,   8.39999962,   9.80000019
   2543,   8.60000038,   9.80000019
   2544,   8.80000019,   9.80000019
   2545,           9.,   9.80000019
   2546,   9.19999981,   9.80000019
   2547,   9.39999962,   9.80000019
   2548,   9.60000038,   9.80000019
   2549,   9.80000019,   9.80000019
   2550,          10.,   9.80000019
   2551,           0.,          10.
   2552,  0.200000003,          10.
   2553,  0.400000006,          10.
   2554,  0.600000024,          10.
   2555,  0.800000012,          10.
   2556,           1.,          10.
   2557,   1.20000005,          10.
   2558,   1.39999998,          10.
   2559,   1.60000002,          10.
   2560,   1.79999995,          10.
   2561,           2.,          10.
   2562,   2.20000005,          10.
   2563,    2.4000001,          10.
   2564,    2.5999999,          10.
   2565,   2.79999995,          10.
   2566,           3.,          10.
   2567,   3.20000005,          10.
   2568,    3.4000001,          10.
   2569,    3.5999999,          10.
   2570,   3.79999995,          10.
   2571,           4.,          10.
   2572,   4.19999981,          10.
   2573,    4.4000001,          10.
   2574,    4.5999999,          10.
   2575,   4.80000019,          10.
   2576,           5.,          10.
   2577,   5.19999981,          10.
   2578,    5.4000001,          10.
   2579,    5.5999999,          10.
   2580,   5.80000019,          10.
   2581,           6.,          10.
   2582,   6.19999981,          10.
   2583,    6.4000001,          10.
   2584,    6.5999999,          10.
   2585,   6.80000019,          10.
   2586,           7.,          10.
   2587,   7.19999981,          10.
   2588,    7.4000001,          10.
   2589,    7.5999999,          10.
   2590,   7.80000019,          10.
   2591,           8.,          10.
   2592,   8.19999981,          10.
   2593,   8.39999962,          10.
   2594,   8.60000038,          10.
   2595,   8.80000019,          10.
   2596,           9.,          10.
   2597,   9.19999981,          10.
   2598,   9.39999962,          10.
   2599,   9.60000038,          10.
   2600,   9.80000019,          10.
   2601,          10.,          10.
   2602,           0.,   10.1999998
   2603,  0.200000003,   10.1999998
   2604,  0.400000006,   10.1999998
   2605,  0.600000024,   10.1999998
   2606,  0.800000012,   10.1999998
   2607,           1.,   10.1999998
   2608,   1.20000005,   10.1999998
   2609,   1.39999998,   10.1999998
   2610,   1.60000002,   10.1999998
   2611,   1.79999995,   10.1999998
   2612,           2.,   10.1999998
   2613,   2.20000005,   10.1999998
   2614,    2.4000001,   10.1999998
   2615,    2.5999999,   10.1999998
   2616,   2.79999995,   10.1999998
   2617,           3.,   10.1999998
   2618,   3.20000005,   10.1999998
   2619,    3.4000001,   10.1999998
   2620,    3.5999999,   10.1999998
   2621,   3.79999995,   10.1999998
   2622,           4.,   10.1999998
   2623,   4.19999981,   10.1999998
   2624,    4.4000001,   10.1999998
   2625,    4.5999999,   10.1999998
   2626,   4.80000019,   10.1999998
   2627,           5.,   10.1999998
   2628,   5.19999981,   10.1999998
   2629,    5.4000001,   10.1999998
   2630,    5.5999999,   10.1999998
   2631,   5.80000019,   10.1999998
   2632,           6.,   10.1999998
   2633,   6.19999981,   10.1999998
   2634,    6.4000001,   10.1999998
   2635,    6.5999999,   10.1999998
   2636,   6.80000019,   10.1999998
   2637,           7.,   10.1999998
   2638,   7.19999981,   10.1999998
   2639,    7.4000001,   10.1999998
   2640,    7.5999999,   10.1999998
   2641,   7.80000019,   10.1999998
   2642,           8.,   10.1999998
   2643,   8.19999981,   10.1999998
   2644,   8.39999962,   10.1999998
   2645,   8.60000038,   10.1999998
   2646,   8.80000019,   10.1999998
   2647,           9.,   10.1999998
   2648,   9.19999981,   10.1999998
   2649,   9.39999962,   10.1999998
   2650,   9.60000038,   10.1999998
   2651,   9.80000019,   10.1999998
   2652,          10.,   10.1999998
   2653,           0.,   10.3999996
   2654,  0.200000003,   10.3999996
   2655,  0.400000006,   10.3999996
   2656,  0.600000024,   10.3999996
   2657,  0.800000012,   10.3999996
   2658,           1.,   10.3999996
   2659,   1.20000005,   10.3999996
   2660,   1.39999998,   10.3999996
   2661,   1.60000002,   10.3999996
   2662,   1.79999995,   10.3999996
   2663,           2.,   10.3999996
   2664,   2.20000005,   10.3999996
   2665,    2.4000001,   10.3999996
   2666,    2.5999999,   10.3999996
   2667,   2.79999995,   10.3999996
   2668,           3.,   10.3999996
   2669,   3.20000005,   10.3999996
   2670,    3.4000001,   10.3999996
   2671,    3.5999999,   10.3999996
   2672,   3.79999995,   10.3999996
   2673,           4.,   10.3999996
   2674,   4.19999981,   10.3999996
   2675,    4.4000001,   10.3999996
   2676,    4.5999999,   10.3999996
   2677,   4.80000019,   10.3999996
   2678,           5.,   10.3999996
   2679,   5.19999981,   10.3999996
   2680,    5.4000001,   10.3999996
   2681,    5.5999999,   10.3999996
   2682,   5.80000019,   10.3999996
   2683,           6.,   10.3999996
   2684,   6.19999981,   10.3999996
   2685,    6.4000001,   10.3999996
   2686,    6.5999999,   10.3999996
   2687,   6.80000019,   10.3999996
   2688,           7.,   10.3999996
   2689,   7.19999981,   10.3999996
   2690,    7.4000001,   10.3999996
   2691,    7.5999999,   10.3999996
   2692,   7.80000019,   10.3999996
   2693,           8.,   10.3999996
   2694,   8.19999981,   10.3999996
   2695,   8.39999962,   10.3999996
   2696,   8.60000038,   10.3999996
   2697,   8.80000019,   10.3999996
   2698,           9.,   10.3999996
   2699,   9.19999981,   10.3999996
   2700,   9.39999962,   10.3999996
   2701,   9.60000038,   10.3999996
   2702,   9.80000019,   10.3999996
   2703,          10.,   10.3999996
   2704,           0.,   10.6000004
   2705,  0.200000003,   10.6000004
   2706,  0.400000006,   10.6000004
   2707,  0.600000024,   10.6000004
   2708,  0.800000012,   10.6000004
   2709,           1.,   10.6000004
   2710,   1.20000005,   10.6000004
   2711,   1.39999998,   10.6000004
   2712,   1.60000002,   10.6000004
   2713,   1.79999995,   10.6000004
   2714,           2.,   10.6000004
   2715,   2.20000005,   10.6000004
   2716,    2.4000001,   10.6000004
   2717,    2.5999999,   10.6000004
   2718,   2.79999995,   10.6000004
   2719,           3.,   10.6000004
   2720,   3.20000005,   10.6000004
   2721,    3.4000001,   10.6000004
   2722,    3.5999999,   10.6000004
   2723,   3.79999995,   10.6000004
   2724,           4.,   10.6000004
   2725,   4.19999981,   10.6000004
   2726,    4.4000001,   10.6000004
   2727,    4.5999999,   10.6000004
   2728,   4.80000019,   10.6000004
   2729,           5.,   10.6000004
   2730,   5.19999981,   10.6000004
   2731,    5.4000001,   10.6000004
   2732,    5.5999999,   10.6000004
   2733,   5.80000019,   10.6000004
   2734,           6.,   10.6000004
   2735,   6.19999981,   10.6000004
   2736,    6.4000001,   10.6000004
   2737,    6.5999999,   10.6000004
   2738,   6.80000019,   10.6000004
   2739,           7.,   10.6000004
   2740,   7.19999981,   10.6000004
   2741,    7.4000001,   10.6000004
   2742,    7.5999999,   10.6000004
   2743,   7.80000019,   10.6000004
   2744,           8.,   10.6000004
   2745,   8.19999981,   10.6000004
   2746,   8.39999962,   10.6000004
   2747,   8.60000038,   10.6000004
   2748,   8.80000019,   10.6000004
   2749,           9.,   10.6000004
   2750,   9.19999981,   10.6000004
   2751,   9.39999962,   10.6000004
   2752,   9.60000038,   10.6000004
   2753,   9.80000019,   10.6000004
   2754,          10.,   10.6000004
   2755,           0.,   10.8000002
   2756,  0.200000003,   10.8000002
   2757,  0.400000006,   10.8000002
   2758,  0.600000024,   10.8000002
   2759,  0.800000012,   10.8000002
   2760,           1.,   10.8000002
   2761,   1.20000005,   10.8000002
   2762,   1.39999998,   10.8000002
   2763,   1.60000002,   10.8000002
   2764,   1.79999995,   10.8000002
   2765,           2.,   10.8000002
   2766,   2.20000005,   10.8000002
   2767,    2.4000001,   10.8000002
   2768,    2.5999999,   10.8000002
   2769,   2.79999995,   10.8000002
   2770,           3.,   10.8000002
   2771,   3.20000005,   10.8000002
   2772,    3.4000001,   10.8000002
   2773,    3.5999999,   10.8000002
   2774,   3.79999995,   10.8000002
   2775,           4.,   10.8000002
   2776,   4.19999981,   10.8000002
   2777,    4.4000001,   10.8000002
   2778,    4.5999999,   10.8000002
   2779,   4.80000019,   10.8000002
   2780,           5.,   10.8000002
   2781,   5.19999981,   10.8000002
   2782,    5.4000001,   10.8000002
   2783,    5.5999999,   10.8000002
   2784,   5.80000019,   10.8000002
   2785,           6.,   10.8000002
   2786,   6.19999981,   10.8000002
   2787,    6.4000001,   10.8000002
   2788,    6.5999999,   10.8000002
   2789,   6.80000019,   10.8000002
   2790,           7.,   10.8000002
   2791,   7.19999981,   10.8000002
   2792,    7.4000001,   10.8000002
   2793,    7.5999999,   10.8000002
   2794,   7.80000019,   10.8000002
   2795,           8.,   10.8000002
   2796,   8.19999981,   10.8000002
   2797,   8.39999962,   10.8000002
   2798,   8.60000038,   10.8000002
   2799,   8.80000019,   10.8000002
   2800,           9.,   10.8000002
   2801,   9.19999981,   10.8000002
   2802,   9.39999962,   10.8000002
   2803,   9.60000038,   10.8000002
   2804,   9.80000019,   10.8000002
   2805,          10.,   10.8000002
   2806,           0.,          11.
   2807,  0.200000003,          11.
   2808,  0.400000006,          11.
   2809,  0.600000024,          11.
   2810,  0.800000012,          11.
   2811,           1.,          11.
   2812,   1.20000005,          11.
   2813,   1.39999998,          11.
   2814,   1.60000002,          11.
   2815,   1.79999995,          11.
   2816,           2.,          11.
   2817,   2.20000005,          11.
   2818,    2.4000001,          11.
   2819,    2.5999999,          11.
   2820,   2.79999995,          11.
   2821,           3.,          11.
   2822,   3.20000005,          11.
   2823,    3.4000001,          11.
   2824,    3.5999999,          11.
   2825,   3.79999995,          11.
   2826,           4.,          11.
   2827,   4.19999981,          11.
   2828,    4.4000001,          11.
   2829,    4.5999999,          11.
   2830,   4.80000019,          11.
   2831,           5.,          11.
   2832,   5.19999981,          11.
   2833,    5.4000001,          11.
   2834,    5.5999999,          11.
   2835,   5.80000019,          11.
   2836,           6.,          11.
   2837,   6.19999981,          11.
   2838,    6.4000001,          11.
   2839,    6.5999999,          11.
   2840,   6.80000019,          11.
   2841,           7.,          11.
   2842,   7.19999981,          11.
   2843,    7.4000001,          11.
   2844,    7.5999999,          11.
   2845,   7.80000019,          11.
   2846,           8.,          11.
   2847,   8.19999981,          11.
   2848,   8.39999962,          11.
   2849,   8.60000038,          11.
   2850,   8.80000019,          11.
   2851,           9.,          11.
   2852,   9.19999981,          11.
   2853,   9.39999962,          11.
   2854,   9.60000038,          11.
   2855,   9.80000019,          11.
   2856,          10.,          11.
   2857,           0.,   11.1999998
   2858,  0.200000003,   11.1999998
   2859,  0.400000006,   11.1999998
   2860,  0.600000024,   11.1999998
   2861,  0.800000012,   11.1999998
   2862,           1.,   11.1999998
   2863,   1.20000005,   11.1999998
   2864,   1.39999998,   11.1999998
   2865,   1.60000002,   11.1999998
   2866,   1.79999995,   11.1999998
   2867,           2.,   11.1999998
   2868,   2.20000005,   11.1999998
   2869,    2.4000001,   11.1999998
   2870,    2.5999999,   11.1999998
   2871,   2.79999995,   11.1999998
   2872,           3.,   11.1999998
   2873,   3.20000005,   11.1999998
   2874,    3.4000001,   11.1999998
   2875,    3.5999999,   11.1999998
   2876,   3.79999995,   11.1999998
   2877,           4.,   11.1999998
   2878,   4.19999981,   11.1999998
   2879,    4.4000001,   11.1999998
   2880,    4.5999999,   11.1999998
   2881,   4.80000019,   11.1999998
   2882,           5.,   11.1999998
   2883,   5.19999981,   11.1999998
   2884,    5.4000001,   11.1999998
   2885,    5.5999999,   11.1999998
   2886,   5.80000019,   11.1999998
   2887,           6.,   11.1999998
   2888,   6.19999981,   11.1999998
   2889,    6.4000001,   11.1999998
   2890,    6.5999999,   11.1999998
   2891,   6.80000019,   11.1999998
   2892,           7.,   11.1999998
   2893,   7.19999981,   11.1999998
   2894,    7.4000001,   11.1999998
   2895,    7.5999999,   11.1999998
   2896,   7.80000019,   11.1999998
   2897,           8.,   11.1999998
   2898,   8.19999981,   11.1999998
   2899,   8.39999962,   11.1999998
   2900,   8.60000038,   11.1999998
   2901,   8.80000019,   11.1999998
   2902,           9.,   11.1999998
   2903,   9.19999981,   11.1999998
   2904,   9.39999962,   11.1999998
   2905,   9.60000038,   11.1999998
   2906,   9.80000019,   11.1999998
   2907,          10.,   11.1999998
   2908,           0.,   11.3999996
   2909,  0.200000003,   11.3999996
   2910,  0.400000006,   11.3999996
   2911,  0.600000024,   11.3999996
   2912,  0.800000012,   11.3999996
   2913,           1.,   11.3999996
   2914,   1.20000005,   11.3999996
   2915,   1.39999998,   11.3999996
   2916,   1.60000002,   11.3999996
   2917,   1.79999995,   11.3999996
   2918,           2.,   11.3999996
   2919,   2.20000005,   11.3999996
   2920,    2.4000001,   11.3999996
   2921,    2.5999999,   11.3999996
   2922,   2.79999995,   11.3999996
   2923,           3.,   11.3999996
   2924,   3.20000005,   11.3999996
   2925,    3.4000001,   11.3999996
   2926,    3.5999999,   11.3999996
   2927,   3.79999995,   11.3999996
   2928,           4.,   11.3999996
   2929,   4.19999981,   11.3999996
   2930,    4.4000001,   11.3999996
   2931,    4.5999999,   11.3999996
   2932,   4.80000019,   11.3999996
   2933,           5.,   11.3999996
   2934,   5.19999981,   11.3999996
   2935,    5.4000001,   11.3999996
   2936,    5.5999999,   11.3999996
   2937,   5.80000019,   11.3999996
   2938,           6.,   11.3999996
   2939,   6.19999981,   11.3999996
   2940,    6.4000001,   11.3999996
   2941,    6.5999999,   11.3999996
   2942,   6.80000019,   11.3999996
   2943,           7.,   11.3999996
   2944,   7.19999981,   11.3999996
   2945,    7.4000001,   11.3999996
   2946,    7.5999999,   11.3999996
   2947,   7.80000019,   11.3999996
   2948,           8.,   11.3999996
   2949,   8.19999981,   11.3999996
   2950,   8.39999962,   11.3999996
   2951,   8.60000038,   11.3999996
   2952,   8.80000019,   11.3999996
   2953,           9.,   11.3999996
   2954,   9.19999981,   11.3999996
   2955,   9.39999962,   11.3999996
   2956,   9.60000038,   11.3999996
   2957,   9.80000019,   11.3999996
   2958,          10.,   11.3999996
   2959,           0.,   11.6000004
   2960,  0.200000003,   11.6000004
   2961,  0.400000006,   11.6000004
   2962,  0.600000024,   11.6000004
   2963,  0.800000012,   11.6000004
   2964,           1.,   11.6000004
   2965,   1.20000005,   11.6000004
   2966,   1.39999998,   11.6000004
   2967,   1.60000002,   11.6000004
   2968,   1.79999995,   11.6000004
   2969,           2.,   11.6000004
   2970,   2.20000005,   11.6000004
   2971,    2.4000001,   11.6000004
   2972,    2.5999999,   11.6000004
   2973,   2.79999995,   11.6000004
   2974,           3.,   11.6000004
   2975,   3.20000005,   11.6000004
   2976,    3.4000001,   11.6000004
   2977,    3.5999999,   11.6000004
   2978,   3.79999995,   11.6000004
   2979,           4.,   11.6000004
   2980,   4.19999981,   11.6000004
   2981,    4.4000001,   11.6000004
   2982,    4.5999999,   11.6000004
   2983,   4.80000019,   11.6000004
   2984,           5.,   11.6000004
   2985,   5.19999981,   11.6000004
   2986,    5.4000001,   11.6000004
   2987,    5.5999999,   11.6000004
   2988,   5.80000019,   11.6000004
   2989,           6.,   11.6000004
   2990,   6.19999981,   11.6000004
   2991,    6.4000001,   11.6000004
   2992,    6.5999999,   11.6000004
   2993,   6.80000019,   11.6000004
   2994,           7.,   11.6000004
   2995,   7.19999981,   11.6000004
   2996,    7.4000001,   11.6000004
   2997,    7.5999999,   11.6000004
   2998,   7.80000019,   11.6000004
   2999,           8.,   11.6000004
   3000,   8.19999981,   11.6000004
   3001,   8.39999962,   11.6000004
   3002,   8.60000038,   11.6000004
   3003,   8.80000019,   11.6000004
   3004,           9.,   11.6000004
   3005,   9.19999981,   11.6000004
   3006,   9.39999962,   11.6000004
   3007,   9.60000038,   11.6000004
   3008,   9.80000019,   11.6000004
   3009,          10.,   11.6000004
   3010,           0.,   11.8000002
   3011,  0.200000003,   11.8000002
   3012,  0.400000006,   11.8000002
   3013,  0.600000024,   11.8000002
   3014,  0.800000012,   11.8000002
   3015,           1.,   11.8000002
   3016,   1.20000005,   11.8000002
   3017,   1.39999998,   11.8000002
   3018,   1.60000002,   11.8000002
   3019,   1.79999995,   11.8000002
   3020,           2.,   11.8000002
   3021,   2.20000005,   11.8000002
   3022,    2.4000001,   11.8000002
   3023,    2.5999999,   11.8000002
   3024,   2.79999995,   11.8000002
   3025,           3.,   11.8000002
   3026,   3.20000005,   11.8000002
   3027,    3.4000001,   11.8000002
   3028,    3.5999999,   11.8000002
   3029,   3.79999995,   11.8000002
   3030,           4.,   11.8000002
   3031,   4.19999981,   11.8000002
   3032,    4.4000001,   11.8000002
   3033,    4.5999999,   11.8000002
   3034,   4.80000019,   11.8000002
   3035,           5.,   11.8000002
   3036,   5.19999981,   11.8000002
   3037,    5.4000001,   11.8000002
   3038,    5.5999999,   11.8000002
   3039,   5.80000019,   11.8000002
   3040,           6.,   11.8000002
   3041,   6.19999981,   11.8000002
   3042,    6.4000001,   11.8000002
   3043,    6.5999999,   11.8000002
   3044,   6.80000019,   11.8000002
   3045,           7.,   11.8000002
   3046,   7.19999981,   11.8000002
   3047,    7.4000001,   11.8000002
   3048,    7.5999999,   11.8000002
   3049,   7.80000019,   11.8000002
   3050,           8.,   11.8000002
   3051,   8.19999981,   11.8000002
   3052,   8.39999962,   11.8000002
   3053,   8.60000038,   11.8000002
   3054,   8.80000019,   11.8000002
   3055,           9.,   11.8000002
   3056,   9.19999981,   11.8000002
   3057,   9.39999962,   11.8000002
   3058,   9.60000038,   11.8000002
   3059,   9.80000019,   11.8000002
   3060,          10.,   11.8000002
   3061,           0.,          12.
   3062,  0.200000003,          12.
   3063,  0.400000006,          12.
   3064,  0.600000024,          12.
   3065,  0.800000012,          12.
   3066,           1.,          12.
   3067,   1.20000005,          12.
   3068,   1.39999998,          12.
   3069,   1.60000002,          12.
   3070,   1.79999995,          12.
   3071,           2.,          12.
   3072,   2.20000005,          12.
   3073,    2.4000001,          12.
   3074,    2.5999999,          12.
   3075,   2.79999995,          12.
   3076,           3.,          12.
   3077,   3.20000005,          12.
   3078,    3.4000001,          12.
   3079,    3.5999999,          12.
   3080,   3.79999995,          12.
   3081,           4.,          12.
   3082,   4.19999981,          12.
   3083,    4.4000001,          12.
   3084,    4.5999999,          12.
   3085,   4.80000019,          12.
   3086,           5.,          12.
   3087,   5.19999981,          12.
   3088,    5.4000001,          12.
   3089,    5.5999999,          12.
   3090,   5.80000019,          12.
   3091,           6.,          12.
   3092,   6.19999981,          12.
   3093,    6.4000001,          12.
   3094,    6.5999999,          12.
   3095,   6.80000019,          12.
   3096,           7.,          12.
   3097,   7.19999981,          12.
   3098,    7.4000001,          12.
   3099,    7.5999999,          12.
   3100,   7.80000019,          12.
   3101,           8.,          12.
   3102,   8.19999981,          12.
   3103,   8.39999962,          12.
   3104,   8.60000038,          12.
   3105,   8.80000019,          12.
   3106,           9.,          12.
   3107,   9.19999981,          12.
   3108,   9.39999962,          12.
   3109,   9.60000038,          12.
   3110,   9.80000019,          12.
   3111,          10.,          12.
   3112,           0.,   12.1999998
   3113,  0.200000003,   12.1999998
   3114,  0.400000006,   12.1999998
   3115,  0.600000024,   12.1999998
   3116,  0.800000012,   12.1999998
   3117,           1.,   12.1999998
   3118,   1.20000005,   12.1999998
   3119,   1.39999998,   12.1999998
   3120,   1.60000002,   12.1999998
   3121,   1.79999995,   12.1999998
   3122,           2.,   12.1999998
   3123,   2.20000005,   12.1999998
   3124,    2.4000001,   12.1999998
   3125,    2.5999999,   12.1999998
   3126,   2.79999995,   12.1999998
   3127,           3.,   12.1999998
   3128,   3.20000005,   12.1999998
   3129,    3.4000001,   12.1999998
   3130,    3.5999999,   12.1999998
   3131,   3.79999995,   12.1999998
   3132,           4.,   12.1999998
   3133,   4.19999981,   12.1999998
   3134,    4.4000001,   12.1999998
   3135,    4.5999999,   12.1999998
   3136,   4.80000019,   12.1999998
   3137,           5.,   12.1999998
   3138,   5.19999981,   12.1999998
   3139,    5.4000001,   12.1999998
   3140,    5.5999999,   12.1999998
   3141,   5.80000019,   12.1999998
   3142,           6.,   12.1999998
   3143,   6.19999981,   12.1999998
   3144,    6.4000001,   12.1999998
   3145,    6.5999999,   12.1999998
   3146,   6.80000019,   12.1999998
   3147,           7.,   12.1999998
   3148,   7.19999981,   12.1999998
   3149,    7.4000001,   12.1999998
   3150,    7.5999999,   12.1999998
   3151,   7.80000019,   12.1999998
   3152,           8.,   12.1999998
   3153,   8.19999981,   12.1999998
   3154,   8.39999962,   12.1999998
   3155,   8.60000038,   12.1999998
   3156,   8.80000019,   12.1999998
   3157,           9.,   12.1999998
   3158,   9.19999981,   12.1999998
   3159,   9.39999962,   12.1999998
   3160,   9.60000038,   12.1999998
   3161,   9.80000019,   12.1999998
   3162,          10.,   12.1999998
   3163,           0.,   12.3999996
   3164,  0.200000003,   12.3999996
   3165,  0.400000006,   12.3999996
   3166,  0.600000024,   12.3999996
   3167,  0.800000012,   12.3999996
   3168,           1.,   12.3999996
   3169,   1.20000005,   12.3999996
   3170,   1.39999998,   12.3999996
   3171,   1.60000002,   12.3999996
   3172,   1.79999995,   12.3999996
   3173,           2.,   12.3999996
   3174,   2.20000005,   12.3999996
   3175,    2.4000001,   12.3999996
   3176,    2.5999999,   12.3999996
   3177,   2.79999995,   12.3999996
   3178,           3.,   12.3999996
   3179,   3.20000005,   12.3999996
   3180,    3.4000001,   12.3999996
   3181,    3.5999999,   12.3999996
   3182,   3.79999995,   12.3999996
   3183,           4.,   12.3999996
   3184,   4.19999981,   12.3999996
   3185,    4.4000001,   12.3999996
   3186,    4.5999999,   12.3999996
   3187,   4.80000019,   12.3999996
   3188,           5.,   12.3999996
   3189,   5.19999981,   12.3999996
   3190,    5.4000001,   12.3999996
   3191,    5.5999999,   12.3999996
   3192,   5.80000019,   12.3999996
   3193,           6.,   12.3999996
   3194,   6.19999981,   12.3999996
   3195,    6.4000001,   12.3999996
   3196,    6.5999999,   12.3999996
   3197,   6.80000019,   12.3999996
   3198,           7.,   12.3999996
   3199,   7.19999981,   12.3999996
   3200,    7.4000001,   12.3999996
   3201,    7.5999999,   12.3999996
   3202,   7.80000019,   12.3999996
   3203,           8.,   12.3999996
   3204,   8.19999981,   12.3999996
   3205,   8.39999962,   12.3999996
   3206,   8.60000038,   12.3999996
   3207,   8.80000019,   12.3999996
   3208,           9.,   12.3999996
   3209,   9.19999981,   12.3999996
   3210,   9.39999962,   12.3999996
   3211,   9.60000038,   12.3999996
   3212,   9.80000019,   12.3999996
   3213,          10.,   12.3999996
   3214,           0.,   12.6000004
   3215,  0.200000003,   12.6000004
   3216,  0.400000006,   12.6000004
   3217,  0.600000024,   12.6000004
   3218,  0.800000012,   12.6000004
   3219,           1.,   12.6000004
   3220,   1.20000005,   12.6000004
   3221,   1.39999998,   12.6000004
   3222,   1.60000002,   12.6000004
   3223,   1.79999995,   12.6000004
   3224,           2.,   12.6000004
   3225,   2.20000005,   12.6000004
   3226,    2.4000001,   12.6000004
   3227,    2.5999999,   12.6000004
   3228,   2.79999995,   12.6000004
   3229,           3.,   12.6000004
   3230,   3.20000005,   12.6000004
   3231,    3.4000001,   12.6000004
   3232,    3.5999999,   12.6000004
   3233,   3.79999995,   12.6000004
   3234,           4.,   12.6000004
   3235,   4.19999981,   12.6000004
   3236,    4.4000001,   12.6000004
   3237,    4.5999999,   12.6000004
   3238,   4.80000019,   12.6000004
   3239,           5.,   12.6000004
   3240,   5.19999981,   12.6000004
   3241,    5.4000001,   12.6000004
   3242,    5.5999999,   12.6000004
   3243,   5.80000019,   12.6000004
   3244,           6.,   12.6000004
   3245,   6.19999981,   12.6000004
   3246,    6.4000001,   12.6000004
   3247,    6.5999999,   12.6000004
   3248,   6.80000019,   12.6000004
   3249,           7.,   12.6000004
   3250,   7.19999981,   12.6000004
   3251,    7.4000001,   12.6000004
   3252,    7.5999999,   12.6000004
   3253,   7.80000019,   12.6000004
   3254,           8.,   12.6000004
   3255,   8.19999981,   12.6000004
   3256,   8.39999962,   12.6000004
   3257,   8.60000038,   12.6000004
   3258,   8.80000019,   12.6000004
   3259,           9.,   12.6000004
   3260,   9.19999981,   12.6000004
   3261,   9.39999962,   12.6000004
   3262,   9.60000038,   12.6000004
   3263,   9.80000019,   12.6000004
   3264,          10.,   12.6000004
   3265,           0.,   12.8000002
   3266,  0.200000003,   12.8000002
   3267,  0.400000006,   12.8000002
   3268,  0.600000024,   12.8000002
   3269,  0.800000012,   12.8000002
   3270,           1.,   12.8000002
   3271,   1.20000005,   12.8000002
   3272,   1.39999998,   12.8000002
   3273,   1.60000002,   12.8000002
   3274,   1.79999995,   12.8000002
   3275,           2.,   12.8000002
   3276,   2.20000005,   12.8000002
   3277,    2.4000001,   12.8000002
   3278,    2.5999999,   12.8000002
   3279,   2.79999995,   12.8000002
   3280,           3.,   12.8000002
   3281,   3.20000005,   12.8000002
   3282,    3.4000001,   12.8000002
   3283,    3.5999999,   12.8000002
   3284,   3.79999995,   12.8000002
   3285,           4.,   12.8000002
   3286,   4.19999981,   12.8000002
   3287,    4.4000001,   12.8000002
   3288,    4.5999999,   12.8000002
   3289,   4.80000019,   12.8000002
   3290,           5.,   12.8000002
   3291,   5.19999981,   12.8000002
   3292,    5.4000001,   12.8000002
   3293,    5.5999999,   12.8000002
   3294,   5.80000019,   12.8000002
   3295,           6.,   12.8000002
   3296,   6.19999981,   12.8000002
   3297,    6.4000001,   12.8000002
   3298,    6.5999999,   12.8000002
   3299,   6.80000019,   12.8000002
   3300,           7.,   12.8000002
   3301,   7.19999981,   12.8000002
   3302,    7.4000001,   12.8000002
   3303,    7.5999999,   12.8000002
   3304,   7.80000019,   12.8000002
   3305,           8.,   12.8000002
   3306,   8.19999981,   12.8000002
   3307,   8.39999962,   12.8000002
   3308,   8.60000038,   12.8000002
   3309,   8.80000019,   12.8000002
   3310,           9.,   12.8000002
   3311,   9.19999981,   12.8000002
   3312,   9.39999962,   12.8000002
   3313,   9.60000038,   12.8000002
   3314,   9.80000019,   12.8000002
   3315,          10.,   12.8000002
   3316,           0.,          13.
   3317,  0.200000003,          13.
   3318,  0.400000006,          13.
   3319,  0.600000024,          13.
   3320,  0.800000012,          13.
   3321,           1.,          13.
   3322,   1.20000005,          13.
   3323,   1.39999998,          13.
   3324,   1.60000002,          13.
   3325,   1.79999995,          13.
   3326,           2.,          13.
   3327,   2.20000005,          13.
   3328,    2.4000001,          13.
   3329,    2.5999999,          13.
   3330,   2.79999995,          13.
   3331,           3.,          13.
   3332,   3.20000005,          13.
   3333,    3.4000001,          13.
   3334,    3.5999999,          13.
   3335,   3.79999995,          13.
   3336,           4.,          13.
   3337,   4.19999981,          13.
   3338,    4.4000001,          13.
   3339,    4.5999999,          13.
   3340,   4.80000019,          13.
   3341,           5.,          13.
   3342,   5.19999981,          13.
   3343,    5.4000001,          13.
   3344,    5.5999999,          13.
   3345,   5.80000019,          13.
   3346,           6.,          13.
   3347,   6.19999981,          13.
   3348,    6.4000001,          13.
   3349,    6.5999999,          13.
   3350,   6.80000019,          13.
   3351,           7.,          13.
   3352,   7.19999981,          13.
   3353,    7.4000001,          13.
   3354,    7.5999999,          13.
   3355,   7.80000019,          13.
   3356,           8.,          13.
   3357,   8.19999981,          13.
   3358,   8.39999962,          13.
   3359,   8.60000038,          13.
   3360,   8.80000019,          13.
   3361,           9.,          13.
   3362,   9.19999981,          13.
   3363,   9.39999962,          13.
   3364,   9.60000038,          13.
   3365,   9.80000019,          13.
   3366,          10.,          13.
   3367,           0.,   13.1999998
   3368,  0.200000003,   13.1999998
   3369,  0.400000006,   13.1999998
   3370,  0.600000024,   13.1999998
   3371,  0.800000012,   13.1999998
   3372,           1.,   13.1999998
   3373,   1.20000005,   13.1999998
   3374,   1.39999998,   13.1999998
   3375,   1.60000002,   13.1999998
   3376,   1.79999995,   13.1999998
   3377,           2.,   13.1999998
   3378,   2.20000005,   13.1999998
   3379,    2.4000001,   13.1999998
   3380,    2.5999999,   13.1999998
   3381,   2.79999995,   13.1999998
   3382,           3.,   13.1999998
   3383,   3.20000005,   13.1999998
   3384,    3.4000001,   13.1999998
   3385,    3.5999999,   13.1999998
   3386,   3.79999995,   13.1999998
   3387,           4.,   13.1999998
   3388,   4.19999981,   13.1999998
   3389,    4.4000001,   13.1999998
   3390,    4.5999999,   13.1999998
   3391,   4.80000019,   13.1999998
   3392,           5.,   13.1999998
   3393,   5.19999981,   13.1999998
   3394,    5.4000001,   13.1999998
   3395,    5.5999999,   13.1999998
   3396,   5.80000019,   13.1999998
   3397,           6.,   13.1999998
   3398,   6.19999981,   13.1999998
   3399,    6.4000001,   13.1999998
   3400,    6.5999999,   13.1999998
   3401,   6.80000019,   13.1999998
   3402,           7.,   13.1999998
   3403,   7.19999981,   13.1999998
   3404,    7.4000001,   13.1999998
   3405,    7.5999999,   13.1999998
   3406,   7.80000019,   13.1999998
   3407,           8.,   13.1999998
   3408,   8.19999981,   13.1999998
   3409,   8.39999962,   13.1999998
   3410,   8.60000038,   13.1999998
   3411,   8.80000019,   13.1999998
   3412,           9.,   13.1999998
   3413,   9.19999981,   13.1999998
   3414,   9.39999962,   13.1999998
   3415,   9.60000038,   13.1999998
   3416,   9.80000019,   13.1999998
   3417,          10.,   13.1999998
   3418,           0.,   13.3999996
   3419,  0.200000003,   13.3999996
   3420,  0.400000006,   13.3999996
   3421,  0.600000024,   13.3999996
   3422,  0.800000012,   13.3999996
   3423,           1.,   13.3999996
   3424,   1.20000005,   13.3999996
   3425,   1.39999998,   13.3999996
   3426,   1.60000002,   13.3999996
   3427,   1.79999995,   13.3999996
   3428,           2.,   13.3999996
   3429,   2.20000005,   13.3999996
   3430,    2.4000001,   13.3999996
   3431,    2.5999999,   13.3999996
   3432,   2.79999995,   13.3999996
   3433,           3.,   13.3999996
   3434,   3.20000005,   13.3999996
   3435,    3.4000001,   13.3999996
   3436,    3.5999999,   13.3999996
   3437,   3.79999995,   13.3999996
   3438,           4.,   13.3999996
   3439,   4.19999981,   13.3999996
   3440,    4.4000001,   13.3999996
   3441,    4.5999999,   13.3999996
   3442,   4.80000019,   13.3999996
   3443,           5.,   13.3999996
   3444,   5.19999981,   13.3999996
   3445,    5.4000001,   13.3999996
   3446,    5.5999999,   13.3999996
   3447,   5.80000019,   13.3999996
   3448,           6.,   13.3999996
   3449,   6.19999981,   13.3999996
   3450,    6.4000001,   13.3999996
   3451,    6.5999999,   13.3999996
   3452,   6.80000019,   13.3999996
   3453,           7.,   13.3999996
   3454,   7.19999981,   13.3999996
   3455,    7.4000001,   13.3999996
   3456,    7.5999999,   13.3999996
   3457,   7.80000019,   13.3999996
   3458,           8.,   13.3999996
   3459,   8.19999981,   13.3999996
   3460,   8.39999962,   13.3999996
   3461,   8.60000038,   13.3999996
   3462,   8.80000019,   13.3999996
   3463,           9.,   13.3999996
   3464,   9.19999981,   13.3999996
   3465,   9.39999962,   13.3999996
   3466,   9.60000038,   13.3999996
   3467,   9.80000019,   13.3999996
   3468,          10.,   13.3999996
   3469,           0.,   13.6000004
   3470,  0.200000003,   13.6000004
   3471,  0.400000006,   13.6000004
   3472,  0.600000024,   13.6000004
   3473,  0.800000012,   13.6000004
   3474,           1.,   13.6000004
   3475,   1.20000005,   13.6000004
   3476,   1.39999998,   13.6000004
   3477,   1.60000002,   13.6000004
   3478,   1.79999995,   13.6000004
   3479,           2.,   13.6000004
   3480,   2.20000005,   13.6000004
   3481,    2.4000001,   13.6000004
   3482,    2.5999999,   13.6000004
   3483,   2.79999995,   13.6000004
   3484,           3.,   13.6000004
   3485,   3.20000005,   13.6000004
   3486,    3.4000001,   13.6000004
   3487,    3.5999999,   13.6000004
   3488,   3.79999995,   13.6000004
   3489,           4.,   13.6000004
   3490,   4.19999981,   13.6000004
   3491,    4.4000001,   13.6000004
   3492,    4.5999999,   13.6000004
   3493,   4.80000019,   13.6000004
   3494,           5.,   13.6000004
   3495,   5.19999981,   13.6000004
   3496,    5.4000001,   13.6000004
   3497,    5.5999999,   13.6000004
   3498,   5.80000019,   13.6000004
   3499,           6.,   13.6000004
   3500,   6.19999981,   13.6000004
   3501,    6.4000001,   13.6000004
   3502,    6.5999999,   13.6000004
   3503,   6.80000019,   13.6000004
   3504,           7.,   13.6000004
   3505,   7.19999981,   13.6000004
   3506,    7.4000001,   13.6000004
   3507,    7.5999999,   13.6000004
   3508,   7.80000019,   13.6000004
   3509,           8.,   13.6000004
   3510,   8.19999981,   13.6000004
   3511,   8.39999962,   13.6000004
   3512,   8.60000038,   13.6000004
   3513,   8.80000019,   13.6000004
   3514,           9.,   13.6000004
   3515,   9.19999981,   13.6000004
   3516,   9.39999962,   13.6000004
   3517,   9.60000038,   13.6000004
   3518,   9.80000019,   13.6000004
   3519,          10.,   13.6000004
   3520,           0.,   13.8000002
   3521,  0.200000003,   13.8000002
   3522,  0.400000006,   13.8000002
   3523,  0.600000024,   13.8000002
   3524,  0.800000012,   13.8000002
   3525,           1.,   13.8000002
   3526,   1.20000005,   13.8000002
   3527,   1.39999998,   13.8000002
   3528,   1.60000002,   13.8000002
   3529,   1.79999995,   13.8000002
   3530,           2.,   13.8000002
   3531,   2.20000005,   13.8000002
   3532,    2.4000001,   13.8000002
   3533,    2.5999999,   13.8000002
   3534,   2.79999995,   13.8000002
   3535,           3.,   13.8000002
   3536,   3.20000005,   13.8000002
   3537,    3.4000001,   13.8000002
   3538,    3.5999999,   13.8000002
   3539,   3.79999995,   13.8000002
   3540,           4.,   13.8000002
   3541,   4.19999981,   13.8000002
   3542,    4.4000001,   13.8000002
   3543,    4.5999999,   13.8000002
   3544,   4.80000019,   13.8000002
   3545,           5.,   13.8000002
   3546,   5.19999981,   13.8000002
   3547,    5.4000001,   13.8000002
   3548,    5.5999999,   13.8000002
   3549,   5.80000019,   13.8000002
   3550,           6.,   13.8000002
   3551,   6.19999981,   13.8000002
   3552,    6.4000001,   13.8000002
   3553,    6.5999999,   13.8000002
   3554,   6.80000019,   13.8000002
   3555,           7.,   13.8000002
   3556,   7.19999981,   13.8000002
   3557,    7.4000001,   13.8000002
   3558,    7.5999999,   13.8000002
   3559,   7.80000019,   13.8000002
   3560,           8.,   13.8000002
   3561,   8.19999981,   13.8000002
   3562,   8.39999962,   13.8000002
   3563,   8.60000038,   13.8000002
   3564,   8.80000019,   13.8000002
   3565,           9.,   13.8000002
   3566,   9.19999981,   13.8000002
   3567,   9.39999962,   13.8000002
   3568,   9.60000038,   13.8000002
   3569,   9.80000019,   13.8000002
   3570,          10.,   13.8000002
   3571,           0.,          14.
   3572,  0.200000003,          14.
   3573,  0.400000006,          14.
   3574,  0.600000024,          14.
   3575,  0.800000012,          14.
   3576,           1.,          14.
   3577,   1.20000005,          14.
   3578,   1.39999998,          14.
   3579,   1.60000002,          14.
   3580,   1.79999995,          14.
   3581,           2.,          14.
   3582,   2.20000005,          14.
   3583,    2.4000001,          14.
   3584,    2.5999999,          14.
   3585,   2.79999995,          14.
   3586,           3.,          14.
   3587,   3.20000005,          14.
   3588,    3.4000001,          14.
   3589,    3.5999999,          14.
   3590,   3.79999995,          14.
   3591,           4.,          14.
   3592,   4.19999981,          14.
   3593,    4.4000001,          14.
   3594,    4.5999999,          14.
   3595,   4.80000019,          14.
   3596,           5.,          14.
   3597,   5.19999981,          14.
   3598,    5.4000001,          14.
   3599,    5.5999999,          14.
   3600,   5.80000019,          14.
   3601,           6.,          14.
   3602,   6.19999981,          14.
   3603,    6.4000001,          14.
   3604,    6.5999999,          14.
   3605,   6.80000019,          14.
   3606,           7.,          14.
   3607,   7.19999981,          14.
   3608,    7.4000001,          14.
   3609,    7.5999999,          14.
   3610,   7.80000019,          14.
   3611,           8.,          14.
   3612,   8.19999981,          14.
   3613,   8.39999962,          14.
   3614,   8.60000038,          14.
   3615,   8.80000019,          14.
   3616,           9.,          14.
   3617,   9.19999981,          14.
   3618,   9.39999962,          14.
   3619,   9.60000038,          14.
   3620,   9.80000019,          14.
   3621,          10.,          14.
   3622,           0.,   14.1999998
   3623,  0.200000003,   14.1999998
   3624,  0.400000006,   14.1999998
   3625,  0.600000024,   14.1999998
   3626,  0.800000012,   14.1999998
   3627,           1.,   14.1999998
   3628,   1.20000005,   14.1999998
   3629,   1.39999998,   14.1999998
   3630,   1.60000002,   14.1999998
   3631,   1.79999995,   14.1999998
   3632,           2.,   14.1999998
   3633,   2.20000005,   14.1999998
   3634,    2.4000001,   14.1999998
   3635,    2.5999999,   14.1999998
   3636,   2.79999995,   14.1999998
   3637,           3.,   14.1999998
   3638,   3.20000005,   14.1999998
   3639,    3.4000001,   14.1999998
   3640,    3.5999999,   14.1999998
   3641,   3.79999995,   14.1999998
   3642,           4.,   14.1999998
   3643,   4.19999981,   14.1999998
   3644,    4.4000001,   14.1999998
   3645,    4.5999999,   14.1999998
   3646,   4.80000019,   14.1999998
   3647,           5.,   14.1999998
   3648,   5.19999981,   14.1999998
   3649,    5.4000001,   14.1999998
   3650,    5.5999999,   14.1999998
   3651,   5.80000019,   14.1999998
   3652,           6.,   14.1999998
   3653,   6.19999981,   14.1999998
   3654,    6.4000001,   14.1999998
   3655,    6.5999999,   14.1999998
   3656,   6.80000019,   14.1999998
   3657,           7.,   14.1999998
   3658,   7.19999981,   14.1999998
   3659,    7.4000001,   14.1999998
   3660,    7.5999999,   14.1999998
   3661,   7.80000019,   14.1999998
   3662,           8.,   14.1999998
   3663,   8.19999981,   14.1999998
   3664,   8.39999962,   14.1999998
   3665,   8.60000038,   14.1999998
   3666,   8.80000019,   14.1999998
   3667,           9.,   14.1999998
   3668,   9.19999981,   14.1999998
   3669,   9.39999962,   14.1999998
   3670,   9.60000038,   14.1999998
   3671,   9.80000019,   14.1999998
   3672,          10.,   14.1999998
   3673,           0.,   14.3999996
   3674,  0.200000003,   14.3999996
   3675,  0.400000006,   14.3999996
   3676,  0.600000024,   14.3999996
   3677,  0.800000012,   14.3999996
   3678,           1.,   14.3999996
   3679,   1.20000005,   14.3999996
   3680,   1.39999998,   14.3999996
   3681,   1.60000002,   14.3999996
   3682,   1.79999995,   14.3999996
   3683,           2.,   14.3999996
   3684,   2.20000005,   14.3999996
   3685,    2.4000001,   14.3999996
   3686,    2.5999999,   14.3999996
   3687,   2.79999995,   14.3999996
   3688,           3.,   14.3999996
   3689,   3.20000005,   14.3999996
   3690,    3.4000001,   14.3999996
   3691,    3.5999999,   14.3999996
   3692,   3.79999995,   14.3999996
   3693,           4.,   14.3999996
   3694,   4.19999981,   14.3999996
   3695,    4.4000001,   14.3999996
   3696,    4.5999999,   14.3999996
   3697,   4.80000019,   14.3999996
   3698,           5.,   14.3999996
   3699,   5.19999981,   14.3999996
   3700,    5.4000001,   14.3999996
   3701,    5.5999999,   14.3999996
   3702,   5.80000019,   14.3999996
   3703,           6.,   14.3999996
   3704,   6.19999981,   14.3999996
   3705,    6.4000001,   14.3999996
   3706,    6.5999999,   14.3999996
   3707,   6.80000019,   14.3999996
   3708,           7.,   14.3999996
   3709,   7.19999981,   14.3999996
   3710,    7.4000001,   14.3999996
   3711,    7.5999999,   14.3999996
   3712,   7.80000019,   14.3999996
   3713,           8.,   14.3999996
   3714,   8.19999981,   14.3999996
   3715,   8.39999962,   14.3999996
   3716,   8.60000038,   14.3999996
   3717,   8.80000019,   14.3999996
   3718,           9.,   14.3999996
   3719,   9.19999981,   14.3999996
   3720,   9.39999962,   14.3999996
   3721,   9.60000038,   14.3999996
   3722,   9.80000019,   14.3999996
   3723,          10.,   14.3999996
   3724,           0.,   14.6000004
   3725,  0.200000003,   14.6000004
   3726,  0.400000006,   14.6000004
   3727,  0.600000024,   14.6000004
   3728,  0.800000012,   14.6000004
   3729,           1.,   14.6000004
   3730,   1.20000005,   14.6000004
   3731,   1.39999998,   14.6000004
   3732,   1.60000002,   14.6000004
   3733,   1.79999995,   14.6000004
   3734,           2.,   14.6000004
   3735,   2.20000005,   14.6000004
   3736,    2.4000001,   14.6000004
   3737,    2.5999999,   14.6000004
   3738,   2.79999995,   14.6000004
   3739,           3.,   14.6000004
   3740,   3.20000005,   14.6000004
   3741,    3.4000001,   14.6000004
   3742,    3.5999999,   14.6000004
   3743,   3.79999995,   14.6000004
   3744,           4.,   14.6000004
   3745,   4.19999981,   14.6000004
   3746,    4.4000001,   14.6000004
   3747,    4.5999999,   14.6000004
   3748,   4.80000019,   14.6000004
   3749,           5.,   14.6000004
   3750,   5.19999981,   14.6000004
   3751,    5.4000001,   14.6000004
   3752,    5.5999999,   14.6000004
   3753,   5.80000019,   14.6000004
   3754,           6.,   14.6000004
   3755,   6.19999981,   14.6000004
   3756,    6.4000001,   14.6000004
   3757,    6.5999999,   14.6000004
   3758,   6.80000019,   14.6000004
   3759,           7.,   14.6000004
   3760,   7.19999981,   14.6000004
   3761,    7.4000001,   14.6000004
   3762,    7.5999999,   14.6000004
   3763,   7.80000019,   14.6000004
   3764,           8.,   14.6000004
   3765,   8.19999981,   14.6000004
   3766,   8.39999962,   14.6000004
   3767,   8.60000038,   14.6000004
   3768,   8.80000019,   14.6000004
   3769,           9.,   14.6000004
   3770,   9.19999981,   14.6000004
   3771,   9.39999962,   14.6000004
   3772,   9.60000038,   14.6000004
   3773,   9.80000019,   14.6000004
   3774,          10.,   14.6000004
   3775,           0.,   14.8000002
   3776,  0.200000003,   14.8000002
   3777,  0.400000006,   14.8000002
   3778,  0.600000024,   14.8000002
   3779,  0.800000012,   14.8000002
   3780,           1.,   14.8000002
   3781,   1.20000005,   14.8000002
   3782,   1.39999998,   14.8000002
   3783,   1.60000002,   14.8000002
   3784,   1.79999995,   14.8000002
   3785,           2.,   14.8000002
   3786,   2.20000005,   14.8000002
   3787,    2.4000001,   14.8000002
   3788,    2.5999999,   14.8000002
   3789,   2.79999995,   14.8000002
   3790,           3.,   14.8000002
   3791,   3.20000005,   14.8000002
   3792,    3.4000001,   14.8000002
   3793,    3.5999999,   14.8000002
   3794,   3.79999995,   14.8000002
   3795,           4.,   14.8000002
   3796,   4.19999981,   14.8000002
   3797,    4.4000001,   14.8000002
   3798,    4.5999999,   14.8000002
   3799,   4.80000019,   14.8000002
   3800,           5.,   14.8000002
   3801,   5.19999981,   14.8000002
   3802,    5.4000001,   14.8000002
   3803,    5.5999999,   14.8000002
   3804,   5.80000019,   14.8000002
   3805,           6.,   14.8000002
   3806,   6.19999981,   14.8000002
   3807,    6.4000001,   14.8000002
   3808,    6.5999999,   14.8000002
   3809,   6.80000019,   14.8000002
   3810,           7.,   14.8000002
   3811,   7.19999981,   14.8000002
   3812,    7.4000001,   14.8000002
   3813,    7.5999999,   14.8000002
   3814,   7.80000019,   14.8000002
   3815,           8.,   14.8000002
   3816,   8.19999981,   14.8000002
   3817,   8.39999962,   14.8000002
   3818,   8.60000038,   14.8000002
   3819,   8.80000019,   14.8000002
   3820,           9.,   14.8000002
   3821,   9.19999981,   14.8000002
   3822,   9.39999962,   14.8000002
   3823,   9.60000038,   14.8000002
   3824,   9.80000019,   14.8000002
   3825,          10.,   14.8000002
   3826,           0.,          15.
   3827,  0.200000003,          15.
   3828,  0.400000006,          15.
   3829,  0.600000024,          15.
   3830,  0.800000012,          15.
   3831,           1.,          15.
   3832,   1.20000005,          15.
   3833,   1.39999998,          15.
   3834,   1.60000002,          15.
   3835,   1.79999995,          15.
   3836,           2.,          15.
   3837,   2.20000005,          15.
   3838,    2.4000001,          15.
   3839,    2.5999999,          15.
   3840,   2.79999995,          15.
   3841,           3.,          15.
   3842,   3.20000005,          15.
   3843,    3.4000001,          15.
   3844,    3.5999999,          15.
   3845,   3.79999995,          15.
   3846,           4.,          15.
   3847,   4.19999981,          15.
   3848,    4.4000001,          15.
   3849,    4.5999999,          15.
   3850,   4.80000019,          15.
   3851,           5.,          15.
   3852,   5.19999981,          15.
   3853,    5.4000001,          15.
   3854,    5.5999999,          15.
   3855,   5.80000019,          15.
   3856,           6.,          15.
   3857,   6.19999981,          15.
   3858,    6.4000001,          15.
   3859,    6.5999999,          15.
   3860,   6.80000019,          15.
   3861,           7.,          15.
   3862,   7.19999981,          15.
   3863,    7.4000001,          15.
   3864,    7.5999999,          15.
   3865,   7.80000019,          15.
   3866,           8.,          15.
   3867,   8.19999981,          15.
   3868,   8.39999962,          15.
   3869,   8.60000038,          15.
   3870,   8.80000019,          15.
   3871,           9.,          15.
   3872,   9.19999981,          15.
   3873,   9.39999962,          15.
   3874,   9.60000038,          15.
   3875,   9.80000019,          15.
   3876,          10.,          15.
   3877,           0.,   15.1999998
   3878,  0.200000003,   15.1999998
   3879,  0.400000006,   15.1999998
   3880,  0.600000024,   15.1999998
   3881,  0.800000012,   15.1999998
   3882,           1.,   15.1999998
   3883,   1.20000005,   15.1999998
   3884,   1.39999998,   15.1999998
   3885,   1.60000002,   15.1999998
   3886,   1.79999995,   15.1999998
   3887,           2.,   15.1999998
   3888,   2.20000005,   15.1999998
   3889,    2.4000001,   15.1999998
   3890,    2.5999999,   15.1999998
   3891,   2.79999995,   15.1999998
   3892,           3.,   15.1999998
   3893,   3.20000005,   15.1999998
   3894,    3.4000001,   15.1999998
   3895,    3.5999999,   15.1999998
   3896,   3.79999995,   15.1999998
   3897,           4.,   15.1999998
   3898,   4.19999981,   15.1999998
   3899,    4.4000001,   15.1999998
   3900,    4.5999999,   15.1999998
   3901,   4.80000019,   15.1999998
   3902,           5.,   15.1999998
   3903,   5.19999981,   15.1999998
   3904,    5.4000001,   15.1999998
   3905,    5.5999999,   15.1999998
   3906,   5.80000019,   15.1999998
   3907,           6.,   15.1999998
   3908,   6.19999981,   15.1999998
   3909,    6.4000001,   15.1999998
   3910,    6.5999999,   15.1999998
   3911,   6.80000019,   15.1999998
   3912,           7.,   15.1999998
   3913,   7.19999981,   15.1999998
   3914,    7.4000001,   15.1999998
   3915,    7.5999999,   15.1999998
   3916,   7.80000019,   15.1999998
   3917,           8.,   15.1999998
   3918,   8.19999981,   15.1999998
   3919,   8.39999962,   15.1999998
   3920,   8.60000038,   15.1999998
   3921,   8.80000019,   15.1999998
   3922,           9.,   15.1999998
   3923,   9.19999981,   15.1999998
   3924,   9.39999962,   15.1999998
   3925,   9.60000038,   15.1999998
   3926,   9.80000019,   15.1999998
   3927,          10.,   15.1999998
   3928,           0.,   15.3999996
   3929,  0.200000003,   15.3999996
   3930,  0.400000006,   15.3999996
   3931,  0.600000024,   15.3999996
   3932,  0.800000012,   15.3999996
   3933,           1.,   15.3999996
   3934,   1.20000005,   15.3999996
   3935,   1.39999998,   15.3999996
   3936,   1.60000002,   15.3999996
   3937,   1.79999995,   15.3999996
   3938,           2.,   15.3999996
   3939,   2.20000005,   15.3999996
   3940,    2.4000001,   15.3999996
   3941,    2.5999999,   15.3999996
   3942,   2.79999995,   15.3999996
   3943,           3.,   15.3999996
   3944,   3.20000005,   15.3999996
   3945,    3.4000001,   15.3999996
   3946,    3.5999999,   15.3999996
   3947,   3.79999995,   15.3999996
   3948,           4.,   15.3999996
   3949,   4.19999981,   15.3999996
   3950,    4.4000001,   15.3999996
   3951,    4.5999999,   15.3999996
   3952,   4.80000019,   15.3999996
   3953,           5.,   15.3999996
   3954,   5.19999981,   15.3999996
   3955,    5.4000001,   15.3999996
   3956,    5.5999999,   15.3999996
   3957,   5.80000019,   15.3999996
   3958,           6.,   15.3999996
   3959,   6.19999981,   15.3999996
   3960,    6.4000001,   15.3999996
   3961,    6.5999999,   15.3999996
   3962,   6.80000019,   15.3999996
   3963,           7.,   15.3999996
   3964,   7.19999981,   15.3999996
   3965,    7.4000001,   15.3999996
   3966,    7.5999999,   15.3999996
   3967,   7.80000019,   15.3999996
   3968,           8.,   15.3999996
   3969,   8.19999981,   15.3999996
   3970,   8.39999962,   15.3999996
   3971,   8.60000038,   15.3999996
   3972,   8.80000019,   15.3999996
   3973,           9.,   15.3999996
   3974,   9.19999981,   15.3999996
   3975,   9.39999962,   15.3999996
   3976,   9.60000038,   15.3999996
   3977,   9.80000019,   15.3999996
   3978,          10.,   15.3999996
   3979,           0.,   15.6000004
   3980,  0.200000003,   15.6000004
   3981,  0.400000006,   15.6000004
   3982,  0.600000024,   15.6000004
   3983,  0.800000012,   15.6000004
   3984,           1.,   15.6000004
   3985,   1.20000005,   15.6000004
   3986,   1.39999998,   15.6000004
   3987,   1.60000002,   15.6000004
   3988,   1.79999995,   15.6000004
   3989,           2.,   15.6000004
   3990,   2.20000005,   15.6000004
   3991,    2.4000001,   15.6000004
   3992,    2.5999999,   15.6000004
   3993,   2.79999995,   15.6000004
   3994,           3.,   15.6000004
   3995,   3.20000005,   15.6000004
   3996,    3.4000001,   15.6000004
   3997,    3.5999999,   15.6000004
   3998,   3.79999995,   15.6000004
   3999,           4.,   15.6000004
   4000,   4.19999981,   15.6000004
   4001,    4.4000001,   15.6000004
   4002,    4.5999999,   15.6000004
   4003,   4.80000019,   15.6000004
   4004,           5.,   15.6000004
   4005,   5.19999981,   15.6000004
   4006,    5.4000001,   15.6000004
   4007,    5.5999999,   15.6000004
   4008,   5.80000019,   15.6000004
   4009,           6.,   15.6000004
   4010,   6.19999981,   15.6000004
   4011,    6.4000001,   15.6000004
   4012,    6.5999999,   15.6000004
   4013,   6.80000019,   15.6000004
   4014,           7.,   15.6000004
   4015,   7.19999981,   15.6000004
   4016,    7.4000001,   15.6000004
   4017,    7.5999999,   15.6000004
   4018,   7.80000019,   15.6000004
   4019,           8.,   15.6000004
   4020,   8.19999981,   15.6000004
   4021,   8.39999962,   15.6000004
   4022,   8.60000038,   15.6000004
   4023,   8.80000019,   15.6000004
   4024,           9.,   15.6000004
   4025,   9.19999981,   15.6000004
   4026,   9.39999962,   15.6000004
   4027,   9.60000038,   15.6000004
   4028,   9.80000019,   15.6000004
   4029,          10.,   15.6000004
   4030,           0.,   15.8000002
   4031,  0.200000003,   15.8000002
   4032,  0.400000006,   15.8000002
   4033,  0.600000024,   15.8000002
   4034,  0.800000012,   15.8000002
   4035,           1.,   15.8000002
   4036,   1.20000005,   15.8000002
   4037,   1.39999998,   15.8000002
   4038,   1.60000002,   15.8000002
   4039,   1.79999995,   15.8000002
   4040,           2.,   15.8000002
   4041,   2.20000005,   15.8000002
   4042,    2.4000001,   15.8000002
   4043,    2.5999999,   15.8000002
   4044,   2.79999995,   15.8000002
   4045,           3.,   15.8000002
   4046,   3.20000005,   15.8000002
   4047,    3.4000001,   15.8000002
   4048,    3.5999999,   15.8000002
   4049,   3.79999995,   15.8000002
   4050,           4.,   15.8000002
   4051,   4.19999981,   15.8000002
   4052,    4.4000001,   15.8000002
   4053,    4.5999999,   15.8000002
   4054,   4.80000019,   15.8000002
   4055,           5.,   15.8000002
   4056,   5.19999981,   15.8000002
   4057,    5.4000001,   15.8000002
   4058,    5.5999999,   15.8000002
   4059,   5.80000019,   15.8000002
   4060,           6.,   15.8000002
   4061,   6.19999981,   15.8000002
   4062,    6.4000001,   15.8000002
   4063,    6.5999999,   15.8000002
   4064,   6.80000019,   15.8000002
   4065,           7.,   15.8000002
   4066,   7.19999981,   15.8000002
   4067,    7.4000001,   15.8000002
   4068,    7.5999999,   15.8000002
   4069,   7.80000019,   15.8000002
   4070,           8.,   15.8000002
   4071,   8.19999981,   15.8000002
   4072,   8.39999962,   15.8000002
   4073,   8.60000038,   15.8000002
   4074,   8.80000019,   15.8000002
   4075,           9.,   15.8000002
   4076,   9.19999981,   15.8000002
   4077,   9.39999962,   15.8000002
   4078,   9.60000038,   15.8000002
   4079,   9.80000019,   15.8000002
   4080,          10.,   15.8000002
   4081,           0.,          16.
   4082,  0.200000003,          16.
   4083,  0.400000006,          16.
   4084,  0.600000024,          16.
   4085,  0.800000012,          16.
   4086,           1.,          16.
   4087,   1.20000005,          16.
   4088,   1.39999998,          16.
   4089,   1.60000002,          16.
   4090,   1.79999995,          16.
   4091,           2.,          16.
   4092,   2.20000005,          16.
   4093,    2.4000001,          16.
   4094,    2.5999999,          16.
   4095,   2.79999995,          16.
   4096,           3.,          16.
   4097,   3.20000005,          16.
   4098,    3.4000001,          16.
   4099,    3.5999999,          16.
   4100,   3.79999995,          16.
   4101,           4.,          16.
   4102,   4.19999981,          16.
   4103,    4.4000001,          16.
   4104,    4.5999999,          16.
   4105,   4.80000019,          16.
   4106,           5.,          16.
   4107,   5.19999981,          16.
   4108,    5.4000001,          16.
   4109,    5.5999999,          16.
   4110,   5.80000019,          16.
   4111,           6.,          16.
   4112,   6.19999981,          16.
   4113,    6.4000001,          16.
   4114,    6.5999999,          16.
   4115,   6.80000019,          16.
   4116,           7.,          16.
   4117,   7.19999981,          16.
   4118,    7.4000001,          16.
   4119,    7.5999999,          16.
   4120,   7.80000019,          16.
   4121,           8.,          16.
   4122,   8.19999981,          16.
   4123,   8.39999962,          16.
   4124,   8.60000038,          16.
   4125,   8.80000019,          16.
   4126,           9.,          16.
   4127,   9.19999981,          16.
   4128,   9.39999962,          16.
   4129,   9.60000038,          16.
   4130,   9.80000019,          16.
   4131,          10.,          16.
   4132,           0.,   16.2000008
   4133,  0.200000003,   16.2000008
   4134,  0.400000006,   16.2000008
   4135,  0.600000024,   16.2000008
   4136,  0.800000012,   16.2000008
   4137,           1.,   16.2000008
   4138,   1.20000005,   16.2000008
   4139,   1.39999998,   16.2000008
   4140,   1.60000002,   16.2000008
   4141,   1.79999995,   16.2000008
   4142,           2.,   16.2000008
   4143,   2.20000005,   16.2000008
   4144,    2.4000001,   16.2000008
   4145,    2.5999999,   16.2000008
   4146,   2.79999995,   16.2000008
   4147,           3.,   16.2000008
   4148,   3.20000005,   16.2000008
   4149,    3.4000001,   16.2000008
   4150,    3.5999999,   16.2000008
   4151,   3.79999995,   16.2000008
   4152,           4.,   16.2000008
   4153,   4.19999981,   16.2000008
   4154,    4.4000001,   16.2000008
   4155,    4.5999999,   16.2000008
   4156,   4.80000019,   16.2000008
   4157,           5.,   16.2000008
   4158,   5.19999981,   16.2000008
   4159,    5.4000001,   16.2000008
   4160,    5.5999999,   16.2000008
   4161,   5.80000019,   16.2000008
   4162,           6.,   16.2000008
   4163,   6.19999981,   16.2000008
   4164,    6.4000001,   16.2000008
   4165,    6.5999999,   16.2000008
   4166,   6.80000019,   16.2000008
   4167,           7.,   16.2000008
   4168,   7.19999981,   16.2000008
   4169,    7.4000001,   16.2000008
   4170,    7.5999999,   16.2000008
   4171,   7.80000019,   16.2000008
   4172,           8.,   16.2000008
   4173,   8.19999981,   16.2000008
   4174,   8.39999962,   16.2000008
   4175,   8.60000038,   16.2000008
   4176,   8.80000019,   16.2000008
   4177,           9.,   16.2000008
   4178,   9.19999981,   16.2000008
   4179,   9.39999962,   16.2000008
   4180,   9.60000038,   16.2000008
   4181,   9.80000019,   16.2000008
   4182,          10.,   16.2000008
   4183,           0.,   16.3999996
   4184,  0.200000003,   16.3999996
   4185,  0.400000006,   16.3999996
   4186,  0.600000024,   16.3999996
   4187,  0.800000012,   16.3999996
   4188,           1.,   16.3999996
   4189,   1.20000005,   16.3999996
   4190,   1.39999998,   16.3999996
   4191,   1.60000002,   16.3999996
   4192,   1.79999995,   16.3999996
   4193,           2.,   16.3999996
   4194,   2.20000005,   16.3999996
   4195,    2.4000001,   16.3999996
   4196,    2.5999999,   16.3999996
   4197,   2.79999995,   16.3999996
   4198,           3.,   16.3999996
   4199,   3.20000005,   16.3999996
   4200,    3.4000001,   16.3999996
   4201,    3.5999999,   16.3999996
   4202,   3.79999995,   16.3999996
   4203,           4.,   16.3999996
   4204,   4.19999981,   16.3999996
   4205,    4.4000001,   16.3999996
   4206,    4.5999999,   16.3999996
   4207,   4.80000019,   16.3999996
   4208,           5.,   16.3999996
   4209,   5.19999981,   16.3999996
   4210,    5.4000001,   16.3999996
   4211,    5.5999999,   16.3999996
   4212,   5.80000019,   16.3999996
   4213,           6.,   16.3999996
   4214,   6.19999981,   16.3999996
   4215,    6.4000001,   16.3999996
   4216,    6.5999999,   16.3999996
   4217,   6.80000019,   16.3999996
   4218,           7.,   16.3999996
   4219,   7.19999981,   16.3999996
   4220,    7.4000001,   16.3999996
   4221,    7.5999999,   16.3999996
   4222,   7.80000019,   16.3999996
   4223,           8.,   16.3999996
   4224,   8.19999981,   16.3999996
   4225,   8.39999962,   16.3999996
   4226,   8.60000038,   16.3999996
   4227,   8.80000019,   16.3999996
   4228,           9.,   16.3999996
   4229,   9.19999981,   16.3999996
   4230,   9.39999962,   16.3999996
   4231,   9.60000038,   16.3999996
   4232,   9.80000019,   16.3999996
   4233,          10.,   16.3999996
   4234,           0.,   16.6000004
   4235,  0.200000003,   16.6000004
   4236,  0.400000006,   16.6000004
   4237,  0.600000024,   16.6000004
   4238,  0.800000012,   16.6000004
   4239,           1.,   16.6000004
   4240,   1.20000005,   16.6000004
   4241,   1.39999998,   16.6000004
   4242,   1.60000002,   16.6000004
   4243,   1.79999995,   16.6000004
   4244,           2.,   16.6000004
   4245,   2.20000005,   16.6000004
   4246,    2.4000001,   16.6000004
   4247,    2.5999999,   16.6000004
   4248,   2.79999995,   16.6000004
   4249,           3.,   16.6000004
   4250,   3.20000005,   16.6000004
   4251,    3.4000001,   16.6000004
   4252,    3.5999999,   16.6000004
   4253,   3.79999995,   16.6000004
   4254,           4.,   16.6000004
   4255,   4.19999981,   16.6000004
   4256,    4.4000001,   16.6000004
   4257,    4.5999999,   16.6000004
   4258,   4.80000019,   16.6000004
   4259,           5.,   16.6000004
   4260,   5.19999981,   16.6000004
   4261,    5.4000001,   16.6000004
   4262,    5.5999999,   16.6000004
   4263,   5.80000019,   16.6000004
   4264,           6.,   16.6000004
   4265,   6.19999981,   16.6000004
   4266,    6.4000001,   16.6000004
   4267,    6.5999999,   16.6000004
   4268,   6.80000019,   16.6000004
   4269,           7.,   16.6000004
   4270,   7.19999981,   16.6000004
   4271,    7.4000001,   16.6000004
   4272,    7.5999999,   16.6000004
   4273,   7.80000019,   16.6000004
   4274,           8.,   16.6000004
   4275,   8.19999981,   16.6000004
   4276,   8.39999962,   16.6000004
   4277,   8.60000038,   16.6000004
   4278,   8.80000019,   16.6000004
   4279,           9.,   16.6000004
   4280,   9.19999981,   16.6000004
   4281,   9.39999962,   16.6000004
   4282,   9.60000038,   16.6000004
   4283,   9.80000019,   16.6000004
   4284,          10.,   16.6000004
   4285,           0.,   16.7999992
   4286,  0.200000003,   16.7999992
   4287,  0.400000006,   16.7999992
   4288,  0.600000024,   16.7999992
   4289,  0.800000012,   16.7999992
   4290,           1.,   16.7999992
   4291,   1.20000005,   16.7999992
   4292,   1.39999998,   16.7999992
   4293,   1.60000002,   16.7999992
   4294,   1.79999995,   16.7999992
   4295,           2.,   16.7999992
   4296,   2.20000005,   16.7999992
   4297,    2.4000001,   16.7999992
   4298,    2.5999999,   16.7999992
   4299,   2.79999995,   16.7999992
   4300,           3.,   16.7999992
   4301,   3.20000005,   16.7999992
   4302,    3.4000001,   16.7999992
   4303,    3.5999999,   16.7999992
   4304,   3.79999995,   16.7999992
   4305,           4.,   16.7999992
   4306,   4.19999981,   16.7999992
   4307,    4.4000001,   16.7999992
   4308,    4.5999999,   16.7999992
   4309,   4.80000019,   16.7999992
   4310,           5.,   16.7999992
   4311,   5.19999981,   16.7999992
   4312,    5.4000001,   16.7999992
   4313,    5.5999999,   16.7999992
   4314,   5.80000019,   16.7999992
   4315,           6.,   16.7999992
   4316,   6.19999981,   16.7999992
   4317,    6.4000001,   16.7999992
   4318,    6.5999999,   16.7999992
   4319,   6.80000019,   16.7999992
   4320,           7.,   16.7999992
   4321,   7.19999981,   16.7999992
   4322,    7.4000001,   16.7999992
   4323,    7.5999999,   16.7999992
   4324,   7.80000019,   16.7999992
   4325,           8.,   16.7999992
   4326,   8.19999981,   16.7999992
   4327,   8.39999962,   16.7999992
   4328,   8.60000038,   16.7999992
   4329,   8.80000019,   16.7999992
   4330,           9.,   16.7999992
   4331,   9.19999981,   16.7999992
   4332,   9.39999962,   16.7999992
   4333,   9.60000038,   16.7999992
   4334,   9.80000019,   16.7999992
   4335,          10.,   16.7999992
   4336,           0.,          17.
   4337,  0.200000003,          17.
   4338,  0.400000006,          17.
   4339,  0.600000024,          17.
   4340,  0.800000012,          17.
   4341,           1.,          17.
   4342,   1.20000005,          17.
   4343,   1.39999998,          17.
   4344,   1.60000002,          17.
   4345,   1.79999995,          17.
   4346,           2.,          17.
   4347,   2.20000005,          17.
   4348,    2.4000001,          17.
   4349,    2.5999999,          17.
   4350,   2.79999995,          17.
   4351,           3.,          17.
   4352,   3.20000005,          17.
   4353,    3.4000001,          17.
   4354,    3.5999999,          17.
   4355,   3.79999995,          17.
   4356,           4.,          17.
   4357,   4.19999981,          17.
   4358,    4.4000001,          17.
   4359,    4.5999999,          17.
   4360,   4.80000019,          17.
   4361,           5.,          17.
   4362,   5.19999981,          17.
   4363,    5.4000001,          17.
   4364,    5.5999999,          17.
   4365,   5.80000019,          17.
   4366,           6.,          17.
   4367,   6.19999981,          17.
   4368,    6.4000001,          17.
   4369,    6.5999999,          17.
   4370,   6.80000019,          17.
   4371,           7.,          17.
   4372,   7.19999981,          17.
   4373,    7.4000001,          17.
   4374,    7.5999999,          17.
   4375,   7.80000019,          17.
   4376,           8.,          17.
   4377,   8.19999981,          17.
   4378,   8.39999962,          17.
   4379,   8.60000038,          17.
   4380,   8.80000019,          17.
   4381,           9.,          17.
   4382,   9.19999981,          17.
   4383,   9.39999962,          17.
   4384,   9.60000038,          17.
   4385,   9.80000019,          17.
   4386,          10.,          17.
   4387,           0.,   17.2000008
   4388,  0.200000003,   17.2000008
   4389,  0.400000006,   17.2000008
   4390,  0.600000024,   17.2000008
   4391,  0.800000012,   17.2000008
   4392,           1.,   17.2000008
   4393,   1.20000005,   17.2000008
   4394,   1.39999998,   17.2000008
   4395,   1.60000002,   17.2000008
   4396,   1.79999995,   17.2000008
   4397,           2.,   17.2000008
   4398,   2.20000005,   17.2000008
   4399,    2.4000001,   17.2000008
   4400,    2.5999999,   17.2000008
   4401,   2.79999995,   17.2000008
   4402,           3.,   17.2000008
   4403,   3.20000005,   17.2000008
   4404,    3.4000001,   17.2000008
   4405,    3.5999999,   17.2000008
   4406,   3.79999995,   17.2000008
   4407,           4.,   17.2000008
   4408,   4.19999981,   17.2000008
   4409,    4.4000001,   17.2000008
   4410,    4.5999999,   17.2000008
   4411,   4.80000019,   17.2000008
   4412,           5.,   17.2000008
   4413,   5.19999981,   17.2000008
   4414,    5.4000001,   17.2000008
   4415,    5.5999999,   17.2000008
   4416,   5.80000019,   17.2000008
   4417,           6.,   17.2000008
   4418,   6.19999981,   17.2000008
   4419,    6.4000001,   17.2000008
   4420,    6.5999999,   17.2000008
   4421,   6.80000019,   17.2000008
   4422,           7.,   17.2000008
   4423,   7.19999981,   17.2000008
   4424,    7.4000001,   17.2000008
   4425,    7.5999999,   17.2000008
   4426,   7.80000019,   17.2000008
   4427,           8.,   17.2000008
   4428,   8.19999981,   17.2000008
   4429,   8.39999962,   17.2000008
   4430,   8.60000038,   17.2000008
   4431,   8.80000019,   17.2000008
   4432,           9.,   17.2000008
   4433,   9.19999981,   17.2000008
   4434,   9.39999962,   17.2000008
   4435,   9.60000038,   17.2000008
   4436,   9.80000019,   17.2000008
   4437,          10.,   17.2000008
   4438,           0.,   17.3999996
   4439,  0.200000003,   17.3999996
   4440,  0.400000006,   17.3999996
   4441,  0.600000024,   17.3999996
   4442,  0.800000012,   17.3999996
   4443,           1.,   17.3999996
   4444,   1.20000005,   17.3999996
   4445,   1.39999998,   17.3999996
   4446,   1.60000002,   17.3999996
   4447,   1.79999995,   17.3999996
   4448,           2.,   17.3999996
   4449,   2.20000005,   17.3999996
   4450,    2.4000001,   17.3999996
   4451,    2.5999999,   17.3999996
   4452,   2.79999995,   17.3999996
   4453,           3.,   17.3999996
   4454,   3.20000005,   17.3999996
   4455,    3.4000001,   17.3999996
   4456,    3.5999999,   17.3999996
   4457,   3.79999995,   17.3999996
   4458,           4.,   17.3999996
   4459,   4.19999981,   17.3999996
   4460,    4.4000001,   17.3999996
   4461,    4.5999999,   17.3999996
   4462,   4.80000019,   17.3999996
   4463,           5.,   17.3999996
   4464,   5.19999981,   17.3999996
   4465,    5.4000001,   17.3999996
   4466,    5.5999999,   17.3999996
   4467,   5.80000019,   17.3999996
   4468,           6.,   17.3999996
   4469,   6.19999981,   17.3999996
   4470,    6.4000001,   17.3999996
   4471,    6.5999999,   17.3999996
   4472,   6.80000019,   17.3999996
   4473,           7.,   17.3999996
   4474,   7.19999981,   17.3999996
   4475,    7.4000001,   17.3999996
   4476,    7.5999999,   17.3999996
   4477,   7.80000019,   17.3999996
   4478,           8.,   17.3999996
   4479,   8.19999981,   17.3999996
   4480,   8.39999962,   17.3999996
   4481,   8.60000038,   17.3999996
   4482,   8.80000019,   17.3999996
   4483,           9.,   17.3999996
   4484,   9.19999981,   17.3999996
   4485,   9.39999962,   17.3999996
   4486,   9.60000038,   17.3999996
   4487,   9.80000019,   17.3999996
   4488,          10.,   17.3999996
   4489,           0.,   17.6000004
   4490,  0.200000003,   17.6000004
   4491,  0.400000006,   17.6000004
   4492,  0.600000024,   17.6000004
   4493,  0.800000012,   17.6000004
   4494,           1.,   17.6000004
   4495,   1.20000005,   17.6000004
   4496,   1.39999998,   17.6000004
   4497,   1.60000002,   17.6000004
   4498,   1.79999995,   17.6000004
   4499,           2.,   17.6000004
   4500,   2.20000005,   17.6000004
   4501,    2.4000001,   17.6000004
   4502,    2.5999999,   17.6000004
   4503,   2.79999995,   17.6000004
   4504,           3.,   17.6000004
   4505,   3.20000005,   17.6000004
   4506,    3.4000001,   17.6000004
   4507,    3.5999999,   17.6000004
   4508,   3.79999995,   17.6000004
   4509,           4.,   17.6000004
   4510,   4.19999981,   17.6000004
   4511,    4.4000001,   17.6000004
   4512,    4.5999999,   17.6000004
   4513,   4.80000019,   17.6000004
   4514,           5.,   17.6000004
   4515,   5.19999981,   17.6000004
   4516,    5.4000001,   17.6000004
   4517,    5.5999999,   17.6000004
   4518,   5.80000019,   17.6000004
   4519,           6.,   17.6000004
   4520,   6.19999981,   17.6000004
   4521,    6.4000001,   17.6000004
   4522,    6.5999999,   17.6000004
   4523,   6.80000019,   17.6000004
   4524,           7.,   17.6000004
   4525,   7.19999981,   17.6000004
   4526,    7.4000001,   17.6000004
   4527,    7.5999999,   17.6000004
   4528,   7.80000019,   17.6000004
   4529,           8.,   17.6000004
   4530,   8.19999981,   17.6000004
   4531,   8.39999962,   17.6000004
   4532,   8.60000038,   17.6000004
   4533,   8.80000019,   17.6000004
   4534,           9.,   17.6000004
   4535,   9.19999981,   17.6000004
   4536,   9.39999962,   17.6000004
   4537,   9.60000038,   17.6000004
   4538,   9.80000019,   17.6000004
   4539,          10.,   17.6000004
   4540,           0.,   17.7999992
   4541,  0.200000003,   17.7999992
   4542,  0.400000006,   17.7999992
   4543,  0.600000024,   17.7999992
   4544,  0.800000012,   17.7999992
   4545,           1.,   17.7999992
   4546,   1.20000005,   17.7999992
   4547,   1.39999998,   17.7999992
   4548,   1.60000002,   17.7999992
   4549,   1.79999995,   17.7999992
   4550,           2.,   17.7999992
   4551,   2.20000005,   17.7999992
   4552,    2.4000001,   17.7999992
   4553,    2.5999999,   17.7999992
   4554,   2.79999995,   17.7999992
   4555,           3.,   17.7999992
   4556,   3.20000005,   17.7999992
   4557,    3.4000001,   17.7999992
   4558,    3.5999999,   17.7999992
   4559,   3.79999995,   17.7999992
   4560,           4.,   17.7999992
   4561,   4.19999981,   17.7999992
   4562,    4.4000001,   17.7999992
   4563,    4.5999999,   17.7999992
   4564,   4.80000019,   17.7999992
   4565,           5.,   17.7999992
   4566,   5.19999981,   17.7999992
   4567,    5.4000001,   17.7999992
   4568,    5.5999999,   17.7999992
   4569,   5.80000019,   17.7999992
   4570,           6.,   17.7999992
   4571,   6.19999981,   17.7999992
   4572,    6.4000001,   17.7999992
   4573,    6.5999999,   17.7999992
   4574,   6.80000019,   17.7999992
   4575,           7.,   17.7999992
   4576,   7.19999981,   17.7999992
   4577,    7.4000001,   17.7999992
   4578,    7.5999999,   17.7999992
   4579,   7.80000019,   17.7999992
   4580,           8.,   17.7999992
   4581,   8.19999981,   17.7999992
   4582,   8.39999962,   17.7999992
   4583,   8.60000038,   17.7999992
   4584,   8.80000019,   17.7999992
   4585,           9.,   17.7999992
   4586,   9.19999981,   17.7999992
   4587,   9.39999962,   17.7999992
   4588,   9.60000038,   17.7999992
   4589,   9.80000019,   17.7999992
   4590,          10.,   17.7999992
   4591,           0.,          18.
   4592,  0.200000003,          18.
   4593,  0.400000006,          18.
   4594,  0.600000024,          18.
   4595,  0.800000012,          18.
   4596,           1.,          18.
   4597,   1.20000005,          18.
   4598,   1.39999998,          18.
   4599,   1.60000002,          18.
   4600,   1.79999995,          18.
   4601,           2.,          18.
   4602,   2.20000005,          18.
   4603,    2.4000001,          18.
   4604,    2.5999999,          18.
   4605,   2.79999995,          18.
   4606,           3.,          18.
   4607,   3.20000005,          18.
   4608,    3.4000001,          18.
   4609,    3.5999999,          18.
   4610,   3.79999995,          18.
   4611,           4.,          18.
   4612,   4.19999981,          18.
   4613,    4.4000001,          18.
   4614,    4.5999999,          18.
   4615,   4.80000019,          18.
   4616,           5.,          18.
   4617,   5.19999981,          18.
   4618,    5.4000001,          18.
   4619,    5.5999999,          18.
   4620,   5.80000019,          18.
   4621,           6.,          18.
   4622,   6.19999981,          18.
   4623,    6.4000001,          18.
   4624,    6.5999999,          18.
   4625,   6.80000019,          18.
   4626,           7.,          18.
   4627,   7.19999981,          18.
   4628,    7.4000001,          18.
   4629,    7.5999999,          18.
   4630,   7.80000019,          18.
   4631,           8.,          18.
   4632,   8.19999981,          18.
   4633,   8.39999962,          18.
   4634,   8.60000038,          18.
   4635,   8.80000019,          18.
   4636,           9.,          18.
   4637,   9.19999981,          18.
   4638,   9.39999962,          18.
   4639,   9.60000038,          18.
   4640,   9.80000019,          18.
   4641,          10.,          18.
   4642,           0.,   18.2000008
   4643,  0.200000003,   18.2000008
   4644,  0.400000006,   18.2000008
   4645,  0.600000024,   18.2000008
   4646,  0.800000012,   18.2000008
   4647,           1.,   18.2000008
   4648,   1.20000005,   18.2000008
   4649,   1.39999998,   18.2000008
   4650,   1.60000002,   18.2000008
   4651,   1.79999995,   18.2000008
   4652,           2.,   18.2000008
   4653,   2.20000005,   18.2000008
   4654,    2.4000001,   18.2000008
   4655,    2.5999999,   18.2000008
   4656,   2.79999995,   18.2000008
   4657,           3.,   18.2000008
   4658,   3.20000005,   18.2000008
   4659,    3.4000001,   18.2000008
   4660,    3.5999999,   18.2000008
   4661,   3.79999995,   18.2000008
   4662,           4.,   18.2000008
   4663,   4.19999981,   18.2000008
   4664,    4.4000001,   18.2000008
   4665,    4.5999999,   18.2000008
   4666,   4.80000019,   18.2000008
   4667,           5.,   18.2000008
   4668,   5.19999981,   18.2000008
   4669,    5.4000001,   18.2000008
   4670,    5.5999999,   18.2000008
   4671,   5.80000019,   18.2000008
   4672,           6.,   18.2000008
   4673,   6.19999981,   18.2000008
   4674,    6.4000001,   18.2000008
   4675,    6.5999999,   18.2000008
   4676,   6.80000019,   18.2000008
   4677,           7.,   18.2000008
   4678,   7.19999981,   18.2000008
   4679,    7.4000001,   18.2000008
   4680,    7.5999999,   18.2000008
   4681,   7.80000019,   18.2000008
   4682,           8.,   18.2000008
   4683,   8.19999981,   18.2000008
   4684,   8.39999962,   18.2000008
   4685,   8.60000038,   18.2000008
   4686,   8.80000019,   18.2000008
   4687,           9.,   18.2000008
   4688,   9.19999981,   18.2000008
   4689,   9.39999962,   18.2000008
   4690,   9.60000038,   18.2000008
   4691,   9.80000019,   18.2000008
   4692,          10.,   18.2000008
   4693,           0.,   18.3999996
   4694,  0.200000003,   18.3999996
   4695,  0.400000006,   18.3999996
   4696,  0.600000024,   18.3999996
   4697,  0.800000012,   18.3999996
   4698,           1.,   18.3999996
   4699,   1.20000005,   18.3999996
   4700,   1.39999998,   18.3999996
   4701,   1.60000002,   18.3999996
   4702,   1.79999995,   18.3999996
   4703,           2.,   18.3999996
   4704,   2.20000005,   18.3999996
   4705,    2.4000001,   18.3999996
   4706,    2.5999999,   18.3999996
   4707,   2.79999995,   18.3999996
   4708,           3.,   18.3999996
   4709,   3.20000005,   18.3999996
   4710,    3.4000001,   18.3999996
   4711,    3.5999999,   18.3999996
   4712,   3.79999995,   18.3999996
   4713,           4.,   18.3999996
   4714,   4.19999981,   18.3999996
   4715,    4.4000001,   18.3999996
   4716,    4.5999999,   18.3999996
   4717,   4.80000019,   18.3999996
   4718,           5.,   18.3999996
   4719,   5.19999981,   18.3999996
   4720,    5.4000001,   18.3999996
   4721,    5.5999999,   18.3999996
   4722,   5.80000019,   18.3999996
   4723,           6.,   18.3999996
   4724,   6.19999981,   18.3999996
   4725,    6.4000001,   18.3999996
   4726,    6.5999999,   18.3999996
   4727,   6.80000019,   18.3999996
   4728,           7.,   18.3999996
   4729,   7.19999981,   18.3999996
   4730,    7.4000001,   18.3999996
   4731,    7.5999999,   18.3999996
   4732,   7.80000019,   18.3999996
   4733,           8.,   18.3999996
   4734,   8.19999981,   18.3999996
   4735,   8.39999962,   18.3999996
   4736,   8.60000038,   18.3999996
   4737,   8.80000019,   18.3999996
   4738,           9.,   18.3999996
   4739,   9.19999981,   18.3999996
   4740,   9.39999962,   18.3999996
   4741,   9.60000038,   18.3999996
   4742,   9.80000019,   18.3999996
   4743,          10.,   18.3999996
   4744,           0.,   18.6000004
   4745,  0.200000003,   18.6000004
   4746,  0.400000006,   18.6000004
   4747,  0.600000024,   18.6000004
   4748,  0.800000012,   18.6000004
   4749,           1.,   18.6000004
   4750,   1.20000005,   18.6000004
   4751,   1.39999998,   18.6000004
   4752,   1.60000002,   18.6000004
   4753,   1.79999995,   18.6000004
   4754,           2.,   18.6000004
   4755,   2.20000005,   18.6000004
   4756,    2.4000001,   18.6000004
   4757,    2.5999999,   18.6000004
   4758,   2.79999995,   18.6000004
   4759,           3.,   18.6000004
   4760,   3.20000005,   18.6000004
   4761,    3.4000001,   18.6000004
   4762,    3.5999999,   18.6000004
   4763,   3.79999995,   18.6000004
   4764,           4.,   18.6000004
   4765,   4.19999981,   18.6000004
   4766,    4.4000001,   18.6000004
   4767,    4.5999999,   18.6000004
   4768,   4.80000019,   18.6000004
   4769,           5.,   18.6000004
   4770,   5.19999981,   18.6000004
   4771,    5.4000001,   18.6000004
   4772,    5.5999999,   18.6000004
   4773,   5.80000019,   18.6000004
   4774,           6.,   18.6000004
   4775,   6.19999981,   18.6000004
   4776,    6.4000001,   18.6000004
   4777,    6.5999999,   18.6000004
   4778,   6.80000019,   18.6000004
   4779,           7.,   18.6000004
   4780,   7.19999981,   18.6000004
   4781,    7.4000001,   18.6000004
   4782,    7.5999999,   18.6000004
   4783,   7.80000019,   18.6000004
   4784,           8.,   18.6000004
   4785,   8.19999981,   18.6000004
   4786,   8.39999962,   18.6000004
   4787,   8.60000038,   18.6000004
   4788,   8.80000019,   18.6000004
   4789,           9.,   18.6000004
   4790,   9.19999981,   18.6000004
   4791,   9.39999962,   18.6000004
   4792,   9.60000038,   18.6000004
   4793,   9.80000019,   18.6000004
   4794,          10.,   18.6000004
   4795,           0.,   18.7999992
   4796,  0.200000003,   18.7999992
   4797,  0.400000006,   18.7999992
   4798,  0.600000024,   18.7999992
   4799,  0.800000012,   18.7999992
   4800,           1.,   18.7999992
   4801,   1.20000005,   18.7999992
   4802,   1.39999998,   18.7999992
   4803,   1.60000002,   18.7999992
   4804,   1.79999995,   18.7999992
   4805,           2.,   18.7999992
   4806,   2.20000005,   18.7999992
   4807,    2.4000001,   18.7999992
   4808,    2.5999999,   18.7999992
   4809,   2.79999995,   18.7999992
   4810,           3.,   18.7999992
   4811,   3.20000005,   18.7999992
   4812,    3.4000001,   18.7999992
   4813,    3.5999999,   18.7999992
   4814,   3.79999995,   18.7999992
   4815,           4.,   18.7999992
   4816,   4.19999981,   18.7999992
   4817,    4.4000001,   18.7999992
   4818,    4.5999999,   18.7999992
   4819,   4.80000019,   18.7999992
   4820,           5.,   18.7999992
   4821,   5.19999981,   18.7999992
   4822,    5.4000001,   18.7999992
   4823,    5.5999999,   18.7999992
   4824,   5.80000019,   18.7999992
   4825,           6.,   18.7999992
   4826,   6.19999981,   18.7999992
   4827,    6.4000001,   18.7999992
   4828,    6.5999999,   18.7999992
   4829,   6.80000019,   18.7999992
   4830,           7.,   18.7999992
   4831,   7.19999981,   18.7999992
   4832,    7.4000001,   18.7999992
   4833,    7.5999999,   18.7999992
   4834,   7.80000019,   18.7999992
   4835,           8.,   18.7999992
   4836,   8.19999981,   18.7999992
   4837,   8.39999962,   18.7999992
   4838,   8.60000038,   18.7999992
   4839,   8.80000019,   18.7999992
   4840,           9.,   18.7999992
   4841,   9.19999981,   18.7999992
   4842,   9.39999962,   18.7999992
   4843,   9.60000038,   18.7999992
   4844,   9.80000019,   18.7999992
   4845,          10.,   18.7999992
   4846,           0.,          19.
   4847,  0.200000003,          19.
   4848,  0.400000006,          19.
   4849,  0.600000024,          19.
   4850,  0.800000012,          19.
   4851,           1.,          19.
   4852,   1.20000005,          19.
   4853,   1.39999998,          19.
   4854,   1.60000002,          19.
   4855,   1.79999995,          19.
   4856,           2.,          19.
   4857,   2.20000005,          19.
   4858,    2.4000001,          19.
   4859,    2.5999999,          19.
   4860,   2.79999995,          19.
   4861,           3.,          19.
   4862,   3.20000005,          19.
   4863,    3.4000001,          19.
   4864,    3.5999999,          19.
   4865,   3.79999995,          19.
   4866,           4.,          19.
   4867,   4.19999981,          19.
   4868,    4.4000001,          19.
   4869,    4.5999999,          19.
   4870,   4.80000019,          19.
   4871,           5.,          19.
   4872,   5.19999981,          19.
   4873,    5.4000001,          19.
   4874,    5.5999999,          19.
   4875,   5.80000019,          19.
   4876,           6.,          19.
   4877,   6.19999981,          19.
   4878,    6.4000001,          19.
   4879,    6.5999999,          19.
   4880,   6.80000019,          19.
   4881,           7.,          19.
   4882,   7.19999981,          19.
   4883,    7.4000001,          19.
   4884,    7.5999999,          19.
   4885,   7.80000019,          19.
   4886,           8.,          19.
   4887,   8.19999981,          19.
   4888,   8.39999962,          19.
   4889,   8.60000038,          19.
   4890,   8.80000019,          19.
   4891,           9.,          19.
   4892,   9.19999981,          19.
   4893,   9.39999962,          19.
   4894,   9.60000038,          19.
   4895,   9.80000019,          19.
   4896,          10.,          19.
   4897,           0.,   19.2000008
   4898,  0.200000003,   19.2000008
   4899,  0.400000006,   19.2000008
   4900,  0.600000024,   19.2000008
   4901,  0.800000012,   19.2000008
   4902,           1.,   19.2000008
   4903,   1.20000005,   19.2000008
   4904,   1.39999998,   19.2000008
   4905,   1.60000002,   19.2000008
   4906,   1.79999995,   19.2000008
   4907,           2.,   19.2000008
   4908,   2.20000005,   19.2000008
   4909,    2.4000001,   19.2000008
   4910,    2.5999999,   19.2000008
   4911,   2.79999995,   19.2000008
   4912,           3.,   19.2000008
   4913,   3.20000005,   19.2000008
   4914,    3.4000001,   19.2000008
   4915,    3.5999999,   19.2000008
   4916,   3.79999995,   19.2000008
   4917,           4.,   19.2000008
   4918,   4.19999981,   19.2000008
   4919,    4.4000001,   19.2000008
   4920,    4.5999999,   19.2000008
   4921,   4.80000019,   19.2000008
   4922,           5.,   19.2000008
   4923,   5.19999981,   19.2000008
   4924,    5.4000001,   19.2000008
   4925,    5.5999999,   19.2000008
   4926,   5.80000019,   19.2000008
   4927,           6.,   19.2000008
   4928,   6.19999981,   19.2000008
   4929,    6.4000001,   19.2000008
   4930,    6.5999999,   19.2000008
   4931,   6.80000019,   19.2000008
   4932,           7.,   19.2000008
   4933,   7.19999981,   19.2000008
   4934,    7.4000001,   19.2000008
   4935,    7.5999999,   19.2000008
   4936,   7.80000019,   19.2000008
   4937,           8.,   19.2000008
   4938,   8.19999981,   19.2000008
   4939,   8.39999962,   19.2000008
   4940,   8.60000038,   19.2000008
   4941,   8.80000019,   19.2000008
   4942,           9.,   19.2000008
   4943,   9.19999981,   19.2000008
   4944,   9.39999962,   19.2000008
   4945,   9.60000038,   19.2000008
   4946,   9.80000019,   19.2000008
   4947,          10.,   19.2000008
   4948,           0.,   19.3999996
   4949,  0.200000003,   19.3999996
   4950,  0.400000006,   19.3999996
   4951,  0.600000024,   19.3999996
   4952,  0.800000012,   19.3999996
   4953,           1.,   19.3999996
   4954,   1.20000005,   19.3999996
   4955,   1.39999998,   19.3999996
   4956,   1.60000002,   19.3999996
   4957,   1.79999995,   19.3999996
   4958,           2.,   19.3999996
   4959,   2.20000005,   19.3999996
   4960,    2.4000001,   19.3999996
   4961,    2.5999999,   19.3999996
   4962,   2.79999995,   19.3999996
   4963,           3.,   19.3999996
   4964,   3.20000005,   19.3999996
   4965,    3.4000001,   19.3999996
   4966,    3.5999999,   19.3999996
   4967,   3.79999995,   19.3999996
   4968,           4.,   19.3999996
   4969,   4.19999981,   19.3999996
   4970,    4.4000001,   19.3999996
   4971,    4.5999999,   19.3999996
   4972,   4.80000019,   19.3999996
   4973,           5.,   19.3999996
   4974,   5.19999981,   19.3999996
   4975,    5.4000001,   19.3999996
   4976,    5.5999999,   19.3999996
   4977,   5.80000019,   19.3999996
   4978,           6.,   19.3999996
   4979,   6.19999981,   19.3999996
   4980,    6.4000001,   19.3999996
   4981,    6.5999999,   19.3999996
   4982,   6.80000019,   19.3999996
   4983,           7.,   19.3999996
   4984,   7.19999981,   19.3999996
   4985,    7.4000001,   19.3999996
   4986,    7.5999999,   19.3999996
   4987,   7.80000019,   19.3999996
   4988,           8.,   19.3999996
   4989,   8.19999981,   19.3999996
   4990,   8.39999962,   19.3999996
   4991,   8.60000038,   19.3999996
   4992,   8.80000019,   19.3999996
   4993,           9.,   19.3999996
   4994,   9.19999981,   19.3999996
   4995,   9.39999962,   19.3999996
   4996,   9.60000038,   19.3999996
   4997,   9.80000019,   19.3999996
   4998,          10.,   19.3999996
   4999,           0.,   19.6000004
   5000,  0.200000003,   19.6000004
   5001,  0.400000006,   19.6000004
   5002,  0.600000024,   19.6000004
   5003,  0.800000012,   19.6000004
   5004,           1.,   19.6000004
   5005,   1.20000005,   19.6000004
   5006,   1.39999998,   19.6000004
   5007,   1.60000002,   19.6000004
   5008,   1.79999995,   19.6000004
   5009,           2.,   19.6000004
   5010,   2.20000005,   19.6000004
   5011,    2.4000001,   19.6000004
   5012,    2.5999999,   19.6000004
   5013,   2.79999995,   19.6000004
   5014,           3.,   19.6000004
   5015,   3.20000005,   19.6000004
   5016,    3.4000001,   19.6000004
   5017,    3.5999999,   19.6000004
   5018,   3.79999995,   19.6000004
   5019,           4.,   19.6000004
   5020,   4.19999981,   19.6000004
   5021,    4.4000001,   19.6000004
   5022,    4.5999999,   19.6000004
   5023,   4.80000019,   19.6000004
   5024,           5.,   19.6000004
   5025,   5.19999981,   19.6000004
   5026,    5.4000001,   19.6000004
   5027,    5.5999999,   19.6000004
   5028,   5.80000019,   19.6000004
   5029,           6.,   19.6000004
   5030,   6.19999981,   19.6000004
   5031,    6.4000001,   19.6000004
   5032,    6.5999999,   19.6000004
   5033,   6.80000019,   19.6000004
   5034,           7.,   19.6000004
   5035,   7.19999981,   19.6000004
   5036,    7.4000001,   19.6000004
   5037,    7.5999999,   19.6000004
   5038,   7.80000019,   19.6000004
   5039,           8.,   19.6000004
   5040,   8.19999981,   19.6000004
   5041,   8.39999962,   19.6000004
   5042,   8.60000038,   19.6000004
   5043,   8.80000019,   19.6000004
   5044,           9.,   19.6000004
   5045,   9.19999981,   19.6000004
   5046,   9.39999962,   19.6000004
   5047,   9.60000038,   19.6000004
   5048,   9.80000019,   19.6000004
   5049,          10.,   19.6000004
   5050,           0.,   19.7999992
   5051,  0.200000003,   19.7999992
   5052,  0.400000006,   19.7999992
   5053,  0.600000024,   19.7999992
   5054,  0.800000012,   19.7999992
   5055,           1.,   19.7999992
   5056,   1.20000005,   19.7999992
   5057,   1.39999998,   19.7999992
   5058,   1.60000002,   19.7999992
   5059,   1.79999995,   19.7999992
   5060,           2.,   19.7999992
   5061,   2.20000005,   19.7999992
   5062,    2.4000001,   19.7999992
   5063,    2.5999999,   19.7999992
   5064,   2.79999995,   19.7999992
   5065,           3.,   19.7999992
   5066,   3.20000005,   19.7999992
   5067,    3.4000001,   19.7999992
   5068,    3.5999999,   19.7999992
   5069,   3.79999995,   19.7999992
   5070,           4.,   19.7999992
   5071,   4.19999981,   19.7999992
   5072,    4.4000001,   19.7999992
   5073,    4.5999999,   19.7999992
   5074,   4.80000019,   19.7999992
   5075,           5.,   19.7999992
   5076,   5.19999981,   19.7999992
   5077,    5.4000001,   19.7999992
   5078,    5.5999999,   19.7999992
   5079,   5.80000019,   19.7999992
   5080,           6.,   19.7999992
   5081,   6.19999981,   19.7999992
   5082,    6.4000001,   19.7999992
   5083,    6.5999999,   19.7999992
   5084,   6.80000019,   19.7999992
   5085,           7.,   19.7999992
   5086,   7.19999981,   19.7999992
   5087,    7.4000001,   19.7999992
   5088,    7.5999999,   19.7999992
   5089,   7.80000019,   19.7999992
   5090,           8.,   19.7999992
   5091,   8.19999981,   19.7999992
   5092,   8.39999962,   19.7999992
   5093,   8.60000038,   19.7999992
   5094,   8.80000019,   19.7999992
   5095,           9.,   19.7999992
   5096,   9.19999981,   19.7999992
   5097,   9.39999962,   19.7999992
   5098,   9.60000038,   19.7999992
   5099,   9.80000019,   19.7999992
   5100,          10.,   19.7999992
   5101,           0.,          20.
   5102,  0.200000003,          20.
   5103,  0.400000006,          20.
   5104,  0.600000024,          20.
   5105,  0.800000012,          20.
   5106,           1.,          20.
   5107,   1.20000005,          20.
   5108,   1.39999998,          20.
   5109,   1.60000002,          20.
   5110,   1.79999995,          20.
   5111,           2.,          20.
   5112,   2.20000005,          20.
   5113,    2.4000001,          20.
   5114,    2.5999999,          20.
   5115,   2.79999995,          20.
   5116,           3.,          20.
   5117,   3.20000005,          20.
   5118,    3.4000001,          20.
   5119,    3.5999999,          20.
   5120,   3.79999995,          20.
   5121,           4.,          20.
   5122,   4.19999981,          20.
   5123,    4.4000001,          20.
   5124,    4.5999999,          20.
   5125,   4.80000019,          20.
   5126,           5.,          20.
   5127,   5.19999981,          20.
   5128,    5.4000001,          20.
   5129,    5.5999999,          20.
   5130,   5.80000019,          20.
   5131,           6.,          20.
   5132,   6.19999981,          20.
   5133,    6.4000001,          20.
   5134,    6.5999999,          20.
   5135,   6.80000019,          20.
   5136,           7.,          20.
   5137,   7.19999981,          20.
   5138,    7.4000001,          20.
   5139,    7.5999999,          20.
   5140,   7.80000019,          20.
   5141,           8.,          20.
   5142,   8.19999981,          20.
   5143,   8.39999962,          20.
   5144,   8.60000038,          20.
   5145,   8.80000019,          20.
   5146,           9.,          20.
   5147,   9.19999981,          20.
   5148,   9.39999962,          20.
   5149,   9.60000038,          20.
   5150,   9.80000019,          20.
   5151,          10.,          20.
*Element, type=CAX4R
   1,    1,    2,   53,   52
   2,    2,    3,   54,   53
   3,    3,    4,   55,   54
   4,    4,    5,   56,   55
   5,    5,    6,   57,   56
   6,    6,    7,   58,   57
   7,    7,    8,   59,   58
   8,    8,    9,   60,   59
   9,    9,   10,   61,   60
  10,   10,   11,   62,   61
  11,   11,   12,   63,   62
  12,   12,   13,   64,   63
  13,   13,   14,   65,   64
  14,   14,   15,   66,   65
  15,   15,   16,   67,   66
  16,   16,   17,   68,   67
  17,   17,   18,   69,   68
  18,   18,   19,   70,   69
  19,   19,   20,   71,   70
  20,   20,   21,   72,   71
  21,   21,   22,   73,   72
  22,   22,   23,   74,   73
  23,   23,   24,   75,   74
  24,   24,   25,   76,   75
  25,   25,   26,   77,   76
  26,   26,   27,   78,   77
  27,   27,   28,   79,   78
  28,   28,   29,   80,   79
  29,   29,   30,   81,   80
  30,   30,   31,   82,   81
  31,   31,   32,   83,   82
  32,   32,   33,   84,   83
  33,   33,   34,   85,   84
  34,   34,   35,   86,   85
  35,   35,   36,   87,   86
  36,   36,   37,   88,   87
  37,   37,   38,   89,   88
  38,   38,   39,   90,   89
  39,   39,   40,   91,   90
  40,   40,   41,   92,   91
  41,   41,   42,   93,   92
  42,   42,   43,   94,   93
  43,   43,   44,   95,   94
  44,   44,   45,   96,   95
  45,   45,   46,   97,   96
  46,   46,   47,   98,   97
  47,   47,   48,   99,   98
  48,   48,   49,  100,   99
  49,   49,   50,  101,  100
  50,   50,   51,  102,  101
  51,   52,   53,  104,  103
  52,   53,   54,  105,  104
  53,   54,   55,  106,  105
  54,   55,   56,  107,  106
  55,   56,   57,  108,  107
  56,   57,   58,  109,  108
  57,   58,   59,  110,  109
  58,   59,   60,  111,  110
  59,   60,   61,  112,  111
  60,   61,   62,  113,  112
  61,   62,   63,  114,  113
  62,   63,   64,  115,  114
  63,   64,   65,  116,  115
  64,   65,   66,  117,  116
  65,   66,   67,  118,  117
  66,   67,   68,  119,  118
  67,   68,   69,  120,  119
  68,   69,   70,  121,  120
  69,   70,   71,  122,  121
  70,   71,   72,  123,  122
  71,   72,   73,  124,  123
  72,   73,   74,  125,  124
  73,   74,   75,  126,  125
  74,   75,   76,  127,  126
  75,   76,   77,  128,  127
  76,   77,   78,  129,  128
  77,   78,   79,  130,  129
  78,   79,   80,  131,  130
  79,   80,   81,  132,  131
  80,   81,   82,  133,  132
  81,   82,   83,  134,  133
  82,   83,   84,  135,  134
  83,   84,   85,  136,  135
  84,   85,   86,  137,  136
  85,   86,   87,  138,  137
  86,   87,   88,  139,  138
  87,   88,   89,  140,  139
  88,   89,   90,  141,  140
  89,   90,   91,  142,  141
  90,   91,   92,  143,  142
  91,   92,   93,  144,  143
  92,   93,   94,  145,  144
  93,   94,   95,  146,  145
  94,   95,   96,  147,  146
  95,   96,   97,  148,  147
  96,   97,   98,  149,  148
  97,   98,   99,  150,  149
  98,   99,  100,  151,  150
  99,  100,  101,  152,  151
 100,  101,  102,  153,  152
 101,  103,  104,  155,  154
 102,  104,  105,  156,  155
 103,  105,  106,  157,  156
 104,  106,  107,  158,  157
 105,  107,  108,  159,  158
 106,  108,  109,  160,  159
 107,  109,  110,  161,  160
 108,  110,  111,  162,  161
 109,  111,  112,  163,  162
 110,  112,  113,  164,  163
 111,  113,  114,  165,  164
 112,  114,  115,  166,  165
 113,  115,  116,  167,  166
 114,  116,  117,  168,  167
 115,  117,  118,  169,  168
 116,  118,  119,  170,  169
 117,  119,  120,  171,  170
 118,  120,  121,  172,  171
 119,  121,  122,  173,  172
 120,  122,  123,  174,  173
 121,  123,  124,  175,  174
 122,  124,  125,  176,  175
 123,  125,  126,  177,  176
 124,  126,  127,  178,  177
 125,  127,  128,  179,  178
 126,  128,  129,  180,  179
 127,  129,  130,  181,  180
 128,  130,  131,  182,  181
 129,  131,  132,  183,  182
 130,  132,  133,  184,  183
 131,  133,  134,  185,  184
 132,  134,  135,  186,  185
 133,  135,  136,  187,  186
 134,  136,  137,  188,  187
 135,  137,  138,  189,  188
 136,  138,  139,  190,  189
 137,  139,  140,  191,  190
 138,  140,  141,  192,  191
 139,  141,  142,  193,  192
 140,  142,  143,  194,  193
 141,  143,  144,  195,  194
 142,  144,  145,  196,  195
 143,  145,  146,  197,  196
 144,  146,  147,  198,  197
 145,  147,  148,  199,  198
 146,  148,  149,  200,  199
 147,  149,  150,  201,  200
 148,  150,  151,  202,  201
 149,  151,  152,  203,  202
 150,  152,  153,  204,  203
 151,  154,  155,  206,  205
 152,  155,  156,  207,  206
 153,  156,  157,  208,  207
 154,  157,  158,  209,  208
 155,  158,  159,  210,  209
 156,  159,  160,  211,  210
 157,  160,  161,  212,  211
 158,  161,  162,  213,  212
 159,  162,  163,  214,  213
 160,  163,  164,  215,  214
 161,  164,  165,  216,  215
 162,  165,  166,  217,  216
 163,  166,  167,  218,  217
 164,  167,  168,  219,  218
 165,  168,  169,  220,  219
 166,  169,  170,  221,  220
 167,  170,  171,  222,  221
 168,  171,  172,  223,  222
 169,  172,  173,  224,  223
 170,  173,  174,  225,  224
 171,  174,  175,  226,  225
 172,  175,  176,  227,  226
 173,  176,  177,  228,  227
 174,  177,  178,  229,  228
 175,  178,  179,  230,  229
 176,  179,  180,  231,  230
 177,  180,  181,  232,  231
 178,  181,  182,  233,  232
 179,  182,  183,  234,  233
 180,  183,  184,  235,  234
 181,  184,  185,  236,  235
 182,  185,  186,  237,  236
 183,  186,  187,  238,  237
 184,  187,  188,  239,  238
 185,  188,  189,  240,  239
 186,  189,  190,  241,  240
 187,  190,  191,  242,  241
 188,  191,  192,  243,  242
 189,  192,  193,  244,  243
 190,  193,  194,  245,  244
 191,  194,  195,  246,  245
 192,  195,  196,  247,  246
 193,  196,  197,  248,  247
 194,  197,  198,  249,  248
 195,  198,  199,  250,  249
 196,  199,  200,  251,  250
 197,  200,  201,  252,  251
 198,  201,  202,  253,  252
 199,  202,  203,  254,  253
 200,  203,  204,  255,  254
 201,  205,  206,  257,  256
 202,  206,  207,  258,  257
 203,  207,  208,  259,  258
 204,  208,  209,  260,  259
 205,  209,  210,  261,  260
 206,  210,  211,  262,  261
 207,  211,  212,  263,  262
 208,  212,  213,  264,  263
 209,  213,  214,  265,  264
 210,  214,  215,  266,  265
 211,  215,  216,  267,  266
 212,  216,  217,  268,  267
 213,  217,  218,  269,  268
 214,  218,  219,  270,  269
 215,  219,  220,  271,  270
 216,  220,  221,  272,  271
 217,  221,  222,  273,  272
 218,  222,  223,  274,  273
 219,  223,  224,  275,  274
 220,  224,  225,  276,  275
 221,  225,  226,  277,  276
 222,  226,  227,  278,  277
 223,  227,  228,  279,  278
 224,  228,  229,  280,  279
 225,  229,  230,  281,  280
 226,  230,  231,  282,  281
 227,  231,  232,  283,  282
 228,  232,  233,  284,  283
 229,  233,  234,  285,  284
 230,  234,  235,  286,  285
 231,  235,  236,  287,  286
 232,  236,  237,  288,  287
 233,  237,  238,  289,  288
 234,  238,  239,  290,  289
 235,  239,  240,  291,  290
 236,  240,  241,  292,  291
 237,  241,  242,  293,  292
 238,  242,  243,  294,  293
 239,  243,  244,  295,  294
 240,  244,  245,  296,  295
 241,  245,  246,  297,  296
 242,  246,  247,  298,  297
 243,  247,  248,  299,  298
 244,  248,  249,  300,  299
 245,  249,  250,  301,  300
 246,  250,  251,  302,  301
 247,  251,  252,  303,  302
 248,  252,  253,  304,  303
 249,  253,  254,  305,  304
 250,  254,  255,  306,  305
 251,  256,  257,  308,  307
 252,  257,  258,  309,  308
 253,  258,  259,  310,  309
 254,  259,  260,  311,  310
 255,  260,  261,  312,  311
 256,  261,  262,  313,  312
 257,  262,  263,  314,  313
 258,  263,  264,  315,  314
 259,  264,  265,  316,  315
 260,  265,  266,  317,  316
 261,  266,  267,  318,  317
 262,  267,  268,  319,  318
 263,  268,  269,  320,  319
 264,  269,  270,  321,  320
 265,  270,  271,  322,  321
 266,  271,  272,  323,  322
 267,  272,  273,  324,  323
 268,  273,  274,  325,  324
 269,  274,  275,  326,  325
 270,  275,  276,  327,  326
 271,  276,  277,  328,  327
 272,  277,  278,  329,  328
 273,  278,  279,  330,  329
 274,  279,  280,  331,  330
 275,  280,  281,  332,  331
 276,  281,  282,  333,  332
 277,  282,  283,  334,  333
 278,  283,  284,  335,  334
 279,  284,  285,  336,  335
 280,  285,  286,  337,  336
 281,  286,  287,  338,  337
 282,  287,  288,  339,  338
 283,  288,  289,  340,  339
 284,  289,  290,  341,  340
 285,  290,  291,  342,  341
 286,  291,  292,  343,  342
 287,  292,  293,  344,  343
 288,  293,  294,  345,  344
 289,  294,  295,  346,  345
 290,  295,  296,  347,  346
 291,  296,  297,  348,  347
 292,  297,  298,  349,  348
 293,  298,  299,  350,  349
 294,  299,  300,  351,  350
 295,  300,  301,  352,  351
 296,  301,  302,  353,  352
 297,  302,  303,  354,  353
 298,  303,  304,  355,  354
 299,  304,  305,  356,  355
 300,  305,  306,  357,  356
 301,  307,  308,  359,  358
 302,  308,  309,  360,  359
 303,  309,  310,  361,  360
 304,  310,  311,  362,  361
 305,  311,  312,  363,  362
 306,  312,  313,  364,  363
 307,  313,  314,  365,  364
 308,  314,  315,  366,  365
 309,  315,  316,  367,  366
 310,  316,  317,  368,  367
 311,  317,  318,  369,  368
 312,  318,  319,  370,  369
 313,  319,  320,  371,  370
 314,  320,  321,  372,  371
 315,  321,  322,  373,  372
 316,  322,  323,  374,  373
 317,  323,  324,  375,  374
 318,  324,  325,  376,  375
 319,  325,  326,  377,  376
 320,  326,  327,  378,  377
 321,  327,  328,  379,  378
 322,  328,  329,  380,  379
 323,  329,  330,  381,  380
 324,  330,  331,  382,  381
 325,  331,  332,  383,  382
 326,  332,  333,  384,  383
 327,  333,  334,  385,  384
 328,  334,  335,  386,  385
 329,  335,  336,  387,  386
 330,  336,  337,  388,  387
 331,  337,  338,  389,  388
 332,  338,  339,  390,  389
 333,  339,  340,  391,  390
 334,  340,  341,  392,  391
 335,  341,  342,  393,  392
 336,  342,  343,  394,  393
 337,  343,  344,  395,  394
 338,  344,  345,  396,  395
 339,  345,  346,  397,  396
 340,  346,  347,  398,  397
 341,  347,  348,  399,  398
 342,  348,  349,  400,  399
 343,  349,  350,  401,  400
 344,  350,  351,  402,  401
 345,  351,  352,  403,  402
 346,  352,  353,  404,  403
 347,  353,  354,  405,  404
 348,  354,  355,  406,  405
 349,  355,  356,  407,  406
 350,  356,  357,  408,  407
 351,  358,  359,  410,  409
 352,  359,  360,  411,  410
 353,  360,  361,  412,  411
 354,  361,  362,  413,  412
 355,  362,  363,  414,  413
 356,  363,  364,  415,  414
 357,  364,  365,  416,  415
 358,  365,  366,  417,  416
 359,  366,  367,  418,  417
 360,  367,  368,  419,  418
 361,  368,  369,  420,  419
 362,  369,  370,  421,  420
 363,  370,  371,  422,  421
 364,  371,  372,  423,  422
 365,  372,  373,  424,  423
 366,  373,  374,  425,  424
 367,  374,  375,  426,  425
 368,  375,  376,  427,  426
 369,  376,  377,  428,  427
 370,  377,  378,  429,  428
 371,  378,  379,  430,  429
 372,  379,  380,  431,  430
 373,  380,  381,  432,  431
 374,  381,  382,  433,  432
 375,  382,  383,  434,  433
 376,  383,  384,  435,  434
 377,  384,  385,  436,  435
 378,  385,  386,  437,  436
 379,  386,  387,  438,  437
 380,  387,  388,  439,  438
 381,  388,  389,  440,  439
 382,  389,  390,  441,  440
 383,  390,  391,  442,  441
 384,  391,  392,  443,  442
 385,  392,  393,  444,  443
 386,  393,  394,  445,  444
 387,  394,  395,  446,  445
 388,  395,  396,  447,  446
 389,  396,  397,  448,  447
 390,  397,  398,  449,  448
 391,  398,  399,  450,  449
 392,  399,  400,  451,  450
 393,  400,  401,  452,  451
 394,  401,  402,  453,  452
 395,  402,  403,  454,  453
 396,  403,  404,  455,  454
 397,  404,  405,  456,  455
 398,  405,  406,  457,  456
 399,  406,  407,  458,  457
 400,  407,  408,  459,  458
 401,  409,  410,  461,  460
 402,  410,  411,  462,  461
 403,  411,  412,  463,  462
 404,  412,  413,  464,  463
 405,  413,  414,  465,  464
 406,  414,  415,  466,  465
 407,  415,  416,  467,  466
 408,  416,  417,  468,  467
 409,  417,  418,  469,  468
 410,  418,  419,  470,  469
 411,  419,  420,  471,  470
 412,  420,  421,  472,  471
 413,  421,  422,  473,  472
 414,  422,  423,  474,  473
 415,  423,  424,  475,  474
 416,  424,  425,  476,  475
 417,  425,  426,  477,  476
 418,  426,  427,  478,  477
 419,  427,  428,  479,  478
 420,  428,  429,  480,  479
 421,  429,  430,  481,  480
 422,  430,  431,  482,  481
 423,  431,  432,  483,  482
 424,  432,  433,  484,  483
 425,  433,  434,  485,  484
 426,  434,  435,  486,  485
 427,  435,  436,  487,  486
 428,  436,  437,  488,  487
 429,  437,  438,  489,  488
 430,  438,  439,  490,  489
 431,  439,  440,  491,  490
 432,  440,  441,  492,  491
 433,  441,  442,  493,  492
 434,  442,  443,  494,  493
 435,  443,  444,  495,  494
 436,  444,  445,  496,  495
 437,  445,  446,  497,  496
 438,  446,  447,  498,  497
 439,  447,  448,  499,  498
 440,  448,  449,  500,  499
 441,  449,  450,  501,  500
 442,  450,  451,  502,  501
 443,  451,  452,  503,  502
 444,  452,  453,  504,  503
 445,  453,  454,  505,  504
 446,  454,  455,  506,  505
 447,  455,  456,  507,  506
 448,  456,  457,  508,  507
 449,  457,  458,  509,  508
 450,  458,  459,  510,  509
 451,  460,  461,  512,  511
 452,  461,  462,  513,  512
 453,  462,  463,  514,  513
 454,  463,  464,  515,  514
 455,  464,  465,  516,  515
 456,  465,  466,  517,  516
 457,  466,  467,  518,  517
 458,  467,  468,  519,  518
 459,  468,  469,  520,  519
 460,  469,  470,  521,  520
 461,  470,  471,  522,  521
 462,  471,  472,  523,  522
 463,  472,  473,  524,  523
 464,  473,  474,  525,  524
 465,  474,  475,  526,  525
 466,  475,  476,  527,  526
 467,  476,  477,  528,  527
 468,  477,  478,  529,  528
 469,  478,  479,  530,  529
 470,  479,  480,  531,  530
 471,  480,  481,  532,  531
 472,  481,  482,  533,  532
 473,  482,  483,  534,  533
 474,  483,  484,  535,  534
 475,  484,  485,  536,  535
 476,  485,  486,  537,  536
 477,  486,  487,  538,  537
 478,  487,  488,  539,  538
 479,  488,  489,  540,  539
 480,  489,  490,  541,  540
 481,  490,  491,  542,  541
 482,  491,  492,  543,  542
 483,  492,  493,  544,  543
 484,  493,  494,  545,  544
 485,  494,  495,  546,  545
 486,  495,  496,  547,  546
 487,  496,  497,  548,  547
 488,  497,  498,  549,  548
 489,  498,  499,  550,  549
 490,  499,  500,  551,  550
 491,  500,  501,  552,  551
 492,  501,  502,  553,  552
 493,  502,  503,  554,  553
 494,  503,  504,  555,  554
 495,  504,  505,  556,  555
 496,  505,  506,  557,  556
 497,  506,  507,  558,  557
 498,  507,  508,  559,  558
 499,  508,  509,  560,  559
 500,  509,  510,  561,  560
 501,  511,  512,  563,  562
 502,  512,  513,  564,  563
 503,  513,  514,  565,  564
 504,  514,  515,  566,  565
 505,  515,  516,  567,  566
 506,  516,  517,  568,  567
 507,  517,  518,  569,  568
 508,  518,  519,  570,  569
 509,  519,  520,  571,  570
 510,  520,  521,  572,  571
 511,  521,  522,  573,  572
 512,  522,  523,  574,  573
 513,  523,  524,  575,  574
 514,  524,  525,  576,  575
 515,  525,  526,  577,  576
 516,  526,  527,  578,  577
 517,  527,  528,  579,  578
 518,  528,  529,  580,  579
 519,  529,  530,  581,  580
 520,  530,  531,  582,  581
 521,  531,  532,  583,  582
 522,  532,  533,  584,  583
 523,  533,  534,  585,  584
 524,  534,  535,  586,  585
 525,  535,  536,  587,  586
 526,  536,  537,  588,  587
 527,  537,  538,  589,  588
 528,  538,  539,  590,  589
 529,  539,  540,  591,  590
 530,  540,  541,  592,  591
 531,  541,  542,  593,  592
 532,  542,  543,  594,  593
 533,  543,  544,  595,  594
 534,  544,  545,  596,  595
 535,  545,  546,  597,  596
 536,  546,  547,  598,  597
 537,  547,  548,  599,  598
 538,  548,  549,  600,  599
 539,  549,  550,  601,  600
 540,  550,  551,  602,  601
 541,  551,  552,  603,  602
 542,  552,  553,  604,  603
 543,  553,  554,  605,  604
 544,  554,  555,  606,  605
 545,  555,  556,  607,  606
 546,  556,  557,  608,  607
 547,  557,  558,  609,  608
 548,  558,  559,  610,  609
 549,  559,  560,  611,  610
 550,  560,  561,  612,  611
 551,  562,  563,  614,  613
 552,  563,  564,  615,  614
 553,  564,  565,  616,  615
 554,  565,  566,  617,  616
 555,  566,  567,  618,  617
 556,  567,  568,  619,  618
 557,  568,  569,  620,  619
 558,  569,  570,  621,  620
 559,  570,  571,  622,  621
 560,  571,  572,  623,  622
 561,  572,  573,  624,  623
 562,  573,  574,  625,  624
 563,  574,  575,  626,  625
 564,  575,  576,  627,  626
 565,  576,  577,  628,  627
 566,  577,  578,  629,  628
 567,  578,  579,  630,  629
 568,  579,  580,  631,  630
 569,  580,  581,  632,  631
 570,  581,  582,  633,  632
 571,  582,  583,  634,  633
 572,  583,  584,  635,  634
 573,  584,  585,  636,  635
 574,  585,  586,  637,  636
 575,  586,  587,  638,  637
 576,  587,  588,  639,  638
 577,  588,  589,  640,  639
 578,  589,  590,  641,  640
 579,  590,  591,  642,  641
 580,  591,  592,  643,  642
 581,  592,  593,  644,  643
 582,  593,  594,  645,  644
 583,  594,  595,  646,  645
 584,  595,  596,  647,  646
 585,  596,  597,  648,  647
 586,  597,  598,  649,  648
 587,  598,  599,  650,  649
 588,  599,  600,  651,  650
 589,  600,  601,  652,  651
 590,  601,  602,  653,  652
 591,  602,  603,  654,  653
 592,  603,  604,  655,  654
 593,  604,  605,  656,  655
 594,  605,  606,  657,  656
 595,  606,  607,  658,  657
 596,  607,  608,  659,  658
 597,  608,  609,  660,  659
 598,  609,  610,  661,  660
 599,  610,  611,  662,  661
 600,  611,  612,  663,  662
 601,  613,  614,  665,  664
 602,  614,  615,  666,  665
 603,  615,  616,  667,  666
 604,  616,  617,  668,  667
 605,  617,  618,  669,  668
 606,  618,  619,  670,  669
 607,  619,  620,  671,  670
 608,  620,  621,  672,  671
 609,  621,  622,  673,  672
 610,  622,  623,  674,  673
 611,  623,  624,  675,  674
 612,  624,  625,  676,  675
 613,  625,  626,  677,  676
 614,  626,  627,  678,  677
 615,  627,  628,  679,  678
 616,  628,  629,  680,  679
 617,  629,  630,  681,  680
 618,  630,  631,  682,  681
 619,  631,  632,  683,  682
 620,  632,  633,  684,  683
 621,  633,  634,  685,  684
 622,  634,  635,  686,  685
 623,  635,  636,  687,  686
 624,  636,  637,  688,  687
 625,  637,  638,  689,  688
 626,  638,  639,  690,  689
 627,  639,  640,  691,  690
 628,  640,  641,  692,  691
 629,  641,  642,  693,  692
 630,  642,  643,  694,  693
 631,  643,  644,  695,  694
 632,  644,  645,  696,  695
 633,  645,  646,  697,  696
 634,  646,  647,  698,  697
 635,  647,  648,  699,  698
 636,  648,  649,  700,  699
 637,  649,  650,  701,  700
 638,  650,  651,  702,  701
 639,  651,  652,  703,  702
 640,  652,  653,  704,  703
 641,  653,  654,  705,  704
 642,  654,  655,  706,  705
 643,  655,  656,  707,  706
 644,  656,  657,  708,  707
 645,  657,  658,  709,  708
 646,  658,  659,  710,  709
 647,  659,  660,  711,  710
 648,  660,  661,  712,  711
 649,  661,  662,  713,  712
 650,  662,  663,  714,  713
 651,  664,  665,  716,  715
 652,  665,  666,  717,  716
 653,  666,  667,  718,  717
 654,  667,  668,  719,  718
 655,  668,  669,  720,  719
 656,  669,  670,  721,  720
 657,  670,  671,  722,  721
 658,  671,  672,  723,  722
 659,  672,  673,  724,  723
 660,  673,  674,  725,  724
 661,  674,  675,  726,  725
 662,  675,  676,  727,  726
 663,  676,  677,  728,  727
 664,  677,  678,  729,  728
 665,  678,  679,  730,  729
 666,  679,  680,  731,  730
 667,  680,  681,  732,  731
 668,  681,  682,  733,  732
 669,  682,  683,  734,  733
 670,  683,  684,  735,  734
 671,  684,  685,  736,  735
 672,  685,  686,  737,  736
 673,  686,  687,  738,  737
 674,  687,  688,  739,  738
 675,  688,  689,  740,  739
 676,  689,  690,  741,  740
 677,  690,  691,  742,  741
 678,  691,  692,  743,  742
 679,  692,  693,  744,  743
 680,  693,  694,  745,  744
 681,  694,  695,  746,  745
 682,  695,  696,  747,  746
 683,  696,  697,  748,  747
 684,  697,  698,  749,  748
 685,  698,  699,  750,  749
 686,  699,  700,  751,  750
 687,  700,  701,  752,  751
 688,  701,  702,  753,  752
 689,  702,  703,  754,  753
 690,  703,  704,  755,  754
 691,  704,  705,  756,  755
 692,  705,  706,  757,  756
 693,  706,  707,  758,  757
 694,  707,  708,  759,  758
 695,  708,  709,  760,  759
 696,  709,  710,  761,  760
 697,  710,  711,  762,  761
 698,  711,  712,  763,  762
 699,  712,  713,  764,  763
 700,  713,  714,  765,  764
 701,  715,  716,  767,  766
 702,  716,  717,  768,  767
 703,  717,  718,  769,  768
 704,  718,  719,  770,  769
 705,  719,  720,  771,  770
 706,  720,  721,  772,  771
 707,  721,  722,  773,  772
 708,  722,  723,  774,  773
 709,  723,  724,  775,  774
 710,  724,  725,  776,  775
 711,  725,  726,  777,  776
 712,  726,  727,  778,  777
 713,  727,  728,  779,  778
 714,  728,  729,  780,  779
 715,  729,  730,  781,  780
 716,  730,  731,  782,  781
 717,  731,  732,  783,  782
 718,  732,  733,  784,  783
 719,  733,  734,  785,  784
 720,  734,  735,  786,  785
 721,  735,  736,  787,  786
 722,  736,  737,  788,  787
 723,  737,  738,  789,  788
 724,  738,  739,  790,  789
 725,  739,  740,  791,  790
 726,  740,  741,  792,  791
 727,  741,  742,  793,  792
 728,  742,  743,  794,  793
 729,  743,  744,  795,  794
 730,  744,  745,  796,  795
 731,  745,  746,  797,  796
 732,  746,  747,  798,  797
 733,  747,  748,  799,  798
 734,  748,  749,  800,  799
 735,  749,  750,  801,  800
 736,  750,  751,  802,  801
 737,  751,  752,  803,  802
 738,  752,  753,  804,  803
 739,  753,  754,  805,  804
 740,  754,  755,  806,  805
 741,  755,  756,  807,  806
 742,  756,  757,  808,  807
 743,  757,  758,  809,  808
 744,  758,  759,  810,  809
 745,  759,  760,  811,  810
 746,  760,  761,  812,  811
 747,  761,  762,  813,  812
 748,  762,  763,  814,  813
 749,  763,  764,  815,  814
 750,  764,  765,  816,  815
 751,  766,  767,  818,  817
 752,  767,  768,  819,  818
 753,  768,  769,  820,  819
 754,  769,  770,  821,  820
 755,  770,  771,  822,  821
 756,  771,  772,  823,  822
 757,  772,  773,  824,  823
 758,  773,  774,  825,  824
 759,  774,  775,  826,  825
 760,  775,  776,  827,  826
 761,  776,  777,  828,  827
 762,  777,  778,  829,  828
 763,  778,  779,  830,  829
 764,  779,  780,  831,  830
 765,  780,  781,  832,  831
 766,  781,  782,  833,  832
 767,  782,  783,  834,  833
 768,  783,  784,  835,  834
 769,  784,  785,  836,  835
 770,  785,  786,  837,  836
 771,  786,  787,  838,  837
 772,  787,  788,  839,  838
 773,  788,  789,  840,  839
 774,  789,  790,  841,  840
 775,  790,  791,  842,  841
 776,  791,  792,  843,  842
 777,  792,  793,  844,  843
 778,  793,  794,  845,  844
 779,  794,  795,  846,  845
 780,  795,  796,  847,  846
 781,  796,  797,  848,  847
 782,  797,  798,  849,  848
 783,  798,  799,  850,  849
 784,  799,  800,  851,  850
 785,  800,  801,  852,  851
 786,  801,  802,  853,  852
 787,  802,  803,  854,  853
 788,  803,  804,  855,  854
 789,  804,  805,  856,  855
 790,  805,  806,  857,  856
 791,  806,  807,  858,  857
 792,  807,  808,  859,  858
 793,  808,  809,  860,  859
 794,  809,  810,  861,  860
 795,  810,  811,  862,  861
 796,  811,  812,  863,  862
 797,  812,  813,  864,  863
 798,  813,  814,  865,  864
 799,  814,  815,  866,  865
 800,  815,  816,  867,  866
 801,  817,  818,  869,  868
 802,  818,  819,  870,  869
 803,  819,  820,  871,  870
 804,  820,  821,  872,  871
 805,  821,  822,  873,  872
 806,  822,  823,  874,  873
 807,  823,  824,  875,  874
 808,  824,  825,  876,  875
 809,  825,  826,  877,  876
 810,  826,  827,  878,  877
 811,  827,  828,  879,  878
 812,  828,  829,  880,  879
 813,  829,  830,  881,  880
 814,  830,  831,  882,  881
 815,  831,  832,  883,  882
 816,  832,  833,  884,  883
 817,  833,  834,  885,  884
 818,  834,  835,  886,  885
 819,  835,  836,  887,  886
 820,  836,  837,  888,  887
 821,  837,  838,  889,  888
 822,  838,  839,  890,  889
 823,  839,  840,  891,  890
 824,  840,  841,  892,  891
 825,  841,  842,  893,  892
 826,  842,  843,  894,  893
 827,  843,  844,  895,  894
 828,  844,  845,  896,  895
 829,  845,  846,  897,  896
 830,  846,  847,  898,  897
 831,  847,  848,  899,  898
 832,  848,  849,  900,  899
 833,  849,  850,  901,  900
 834,  850,  851,  902,  901
 835,  851,  852,  903,  902
 836,  852,  853,  904,  903
 837,  853,  854,  905,  904
 838,  854,  855,  906,  905
 839,  855,  856,  907,  906
 840,  856,  857,  908,  907
 841,  857,  858,  909,  908
 842,  858,  859,  910,  909
 843,  859,  860,  911,  910
 844,  860,  861,  912,  911
 845,  861,  862,  913,  912
 846,  862,  863,  914,  913
 847,  863,  864,  915,  914
 848,  864,  865,  916,  915
 849,  865,  866,  917,  916
 850,  866,  867,  918,  917
 851,  868,  869,  920,  919
 852,  869,  870,  921,  920
 853,  870,  871,  922,  921
 854,  871,  872,  923,  922
 855,  872,  873,  924,  923
 856,  873,  874,  925,  924
 857,  874,  875,  926,  925
 858,  875,  876,  927,  926
 859,  876,  877,  928,  927
 860,  877,  878,  929,  928
 861,  878,  879,  930,  929
 862,  879,  880,  931,  930
 863,  880,  881,  932,  931
 864,  881,  882,  933,  932
 865,  882,  883,  934,  933
 866,  883,  884,  935,  934
 867,  884,  885,  936,  935
 868,  885,  886,  937,  936
 869,  886,  887,  938,  937
 870,  887,  888,  939,  938
 871,  888,  889,  940,  939
 872,  889,  890,  941,  940
 873,  890,  891,  942,  941
 874,  891,  892,  943,  942
 875,  892,  893,  944,  943
 876,  893,  894,  945,  944
 877,  894,  895,  946,  945
 878,  895,  896,  947,  946
 879,  896,  897,  948,  947
 880,  897,  898,  949,  948
 881,  898,  899,  950,  949
 882,  899,  900,  951,  950
 883,  900,  901,  952,  951
 884,  901,  902,  953,  952
 885,  902,  903,  954,  953
 886,  903,  904,  955,  954
 887,  904,  905,  956,  955
 888,  905,  906,  957,  956
 889,  906,  907,  958,  957
 890,  907,  908,  959,  958
 891,  908,  909,  960,  959
 892,  909,  910,  961,  960
 893,  910,  911,  962,  961
 894,  911,  912,  963,  962
 895,  912,  913,  964,  963
 896,  913,  914,  965,  964
 897,  914,  915,  966,  965
 898,  915,  916,  967,  966
 899,  916,  917,  968,  967
 900,  917,  918,  969,  968
 901,  919,  920,  971,  970
 902,  920,  921,  972,  971
 903,  921,  922,  973,  972
 904,  922,  923,  974,  973
 905,  923,  924,  975,  974
 906,  924,  925,  976,  975
 907,  925,  926,  977,  976
 908,  926,  927,  978,  977
 909,  927,  928,  979,  978
 910,  928,  929,  980,  979
 911,  929,  930,  981,  980
 912,  930,  931,  982,  981
 913,  931,  932,  983,  982
 914,  932,  933,  984,  983
 915,  933,  934,  985,  984
 916,  934,  935,  986,  985
 917,  935,  936,  987,  986
 918,  936,  937,  988,  987
 919,  937,  938,  989,  988
 920,  938,  939,  990,  989
 921,  939,  940,  991,  990
 922,  940,  941,  992,  991
 923,  941,  942,  993,  992
 924,  942,  943,  994,  993
 925,  943,  944,  995,  994
 926,  944,  945,  996,  995
 927,  945,  946,  997,  996
 928,  946,  947,  998,  997
 929,  947,  948,  999,  998
 930,  948,  949, 1000,  999
 931,  949,  950, 1001, 1000
 932,  950,  951, 1002, 1001
 933,  951,  952, 1003, 1002
 934,  952,  953, 1004, 1003
 935,  953,  954, 1005, 1004
 936,  954,  955, 1006, 1005
 937,  955,  956, 1007, 1006
 938,  956,  957, 1008, 1007
 939,  957,  958, 1009, 1008
 940,  958,  959, 1010, 1009
 941,  959,  960, 1011, 1010
 942,  960,  961, 1012, 1011
 943,  961,  962, 1013, 1012
 944,  962,  963, 1014, 1013
 945,  963,  964, 1015, 1014
 946,  964,  965, 1016, 1015
 947,  965,  966, 1017, 1016
 948,  966,  967, 1018, 1017
 949,  967,  968, 1019, 1018
 950,  968,  969, 1020, 1019
 951,  970,  971, 1022, 1021
 952,  971,  972, 1023, 1022
 953,  972,  973, 1024, 1023
 954,  973,  974, 1025, 1024
 955,  974,  975, 1026, 1025
 956,  975,  976, 1027, 1026
 957,  976,  977, 1028, 1027
 958,  977,  978, 1029, 1028
 959,  978,  979, 1030, 1029
 960,  979,  980, 1031, 1030
 961,  980,  981, 1032, 1031
 962,  981,  982, 1033, 1032
 963,  982,  983, 1034, 1033
 964,  983,  984, 1035, 1034
 965,  984,  985, 1036, 1035
 966,  985,  986, 1037, 1036
 967,  986,  987, 1038, 1037
 968,  987,  988, 1039, 1038
 969,  988,  989, 1040, 1039
 970,  989,  990, 1041, 1040
 971,  990,  991, 1042, 1041
 972,  991,  992, 1043, 1042
 973,  992,  993, 1044, 1043
 974,  993,  994, 1045, 1044
 975,  994,  995, 1046, 1045
 976,  995,  996, 1047, 1046
 977,  996,  997, 1048, 1047
 978,  997,  998, 1049, 1048
 979,  998,  999, 1050, 1049
 980,  999, 1000, 1051, 1050
 981, 1000, 1001, 1052, 1051
 982, 1001, 1002, 1053, 1052
 983, 1002, 1003, 1054, 1053
 984, 1003, 1004, 1055, 1054
 985, 1004, 1005, 1056, 1055
 986, 1005, 1006, 1057, 1056
 987, 1006, 1007, 1058, 1057
 988, 1007, 1008, 1059, 1058
 989, 1008, 1009, 1060, 1059
 990, 1009, 1010, 1061, 1060
 991, 1010, 1011, 1062, 1061
 992, 1011, 1012, 1063, 1062
 993, 1012, 1013, 1064, 1063
 994, 1013, 1014, 1065, 1064
 995, 1014, 1015, 1066, 1065
 996, 1015, 1016, 1067, 1066
 997, 1016, 1017, 1068, 1067
 998, 1017, 1018, 1069, 1068
 999, 1018, 1019, 1070, 1069
1000, 1019, 1020, 1071, 1070
1001, 1021, 1022, 1073, 1072
1002, 1022, 1023, 1074, 1073
1003, 1023, 1024, 1075, 1074
1004, 1024, 1025, 1076, 1075
1005, 1025, 1026, 1077, 1076
1006, 1026, 1027, 1078, 1077
1007, 1027, 1028, 1079, 1078
1008, 1028, 1029, 1080, 1079
1009, 1029, 1030, 1081, 1080
1010, 1030, 1031, 1082, 1081
1011, 1031, 1032, 1083, 1082
1012, 1032, 1033, 1084, 1083
1013, 1033, 1034, 1085, 1084
1014, 1034, 1035, 1086, 1085
1015, 1035, 1036, 1087, 1086
1016, 1036, 1037, 1088, 1087
1017, 1037, 1038, 1089, 1088
1018, 1038, 1039, 1090, 1089
1019, 1039, 1040, 1091, 1090
1020, 1040, 1041, 1092, 1091
1021, 1041, 1042, 1093, 1092
1022, 1042, 1043, 1094, 1093
1023, 1043, 1044, 1095, 1094
1024, 1044, 1045, 1096, 1095
1025, 1045, 1046, 1097, 1096
1026, 1046, 1047, 1098, 1097
1027, 1047, 1048, 1099, 1098
1028, 1048, 1049, 1100, 1099
1029, 1049, 1050, 1101, 1100
1030, 1050, 1051, 1102, 1101
1031, 1051, 1052, 1103, 1102
1032, 1052, 1053, 1104, 1103
1033, 1053, 1054, 1105, 1104
1034, 1054, 1055, 1106, 1105
1035, 1055, 1056, 1107, 1106
1036, 1056, 1057, 1108, 1107
1037, 1057, 1058, 1109, 1108
1038, 1058, 1059, 1110, 1109
1039, 1059, 1060, 1111, 1110
1040, 1060, 1061, 1112, 1111
1041, 1061, 1062, 1113, 1112
1042, 1062, 1063, 1114, 1113
1043, 1063, 1064, 1115, 1114
1044, 1064, 1065, 1116, 1115
1045, 1065, 1066, 1117, 1116
1046, 1066, 1067, 1118, 1117
1047, 1067, 1068, 1119, 1118
1048, 1068, 1069, 1120, 1119
1049, 1069, 1070, 1121, 1120
1050, 1070, 1071, 1122, 1121
1051, 1072, 1073, 1124, 1123
1052, 1073, 1074, 1125, 1124
1053, 1074, 1075, 1126, 1125
1054, 1075, 1076, 1127, 1126
1055, 1076, 1077, 1128, 1127
1056, 1077, 1078, 1129, 1128
1057, 1078, 1079, 1130, 1129
1058, 1079, 1080, 1131, 1130
1059, 1080, 1081, 1132, 1131
1060, 1081, 1082, 1133, 1132
1061, 1082, 1083, 1134, 1133
1062, 1083, 1084, 1135, 1134
1063, 1084, 1085, 1136, 1135
1064, 1085, 1086, 1137, 1136
1065, 1086, 1087, 1138, 1137
1066, 1087, 1088, 1139, 1138
1067, 1088, 1089, 1140, 1139
1068, 1089, 1090, 1141, 1140
1069, 1090, 1091, 1142, 1141
1070, 1091, 1092, 1143, 1142
1071, 1092, 1093, 1144, 1143
1072, 1093, 1094, 1145, 1144
1073, 1094, 1095, 1146, 1145
1074, 1095, 1096, 1147, 1146
1075, 1096, 1097, 1148, 1147
1076, 1097, 1098, 1149, 1148
1077, 1098, 1099, 1150, 1149
1078, 1099, 1100, 1151, 1150
1079, 1100, 1101, 1152, 1151
1080, 1101, 1102, 1153, 1152
1081, 1102, 1103, 1154, 1153
1082, 1103, 1104, 1155, 1154
1083, 1104, 1105, 1156, 1155
1084, 1105, 1106, 1157, 1156
1085, 1106, 1107, 1158, 1157
1086, 1107, 1108, 1159, 1158
1087, 1108, 1109, 1160, 1159
1088, 1109, 1110, 1161, 1160
1089, 1110, 1111, 1162, 1161
1090, 1111, 1112, 1163, 1162
1091, 1112, 1113, 1164, 1163
1092, 1113, 1114, 1165, 1164
1093, 1114, 1115, 1166, 1165
1094, 1115, 1116, 1167, 1166
1095, 1116, 1117, 1168, 1167
1096, 1117, 1118, 1169, 1168
1097, 1118, 1119, 1170, 1169
1098, 1119, 1120, 1171, 1170
1099, 1120, 1121, 1172, 1171
1100, 1121, 1122, 1173, 1172
1101, 1123, 1124, 1175, 1174
1102, 1124, 1125, 1176, 1175
1103, 1125, 1126, 1177, 1176
1104, 1126, 1127, 1178, 1177
1105, 1127, 1128, 1179, 1178
1106, 1128, 1129, 1180, 1179
1107, 1129, 1130, 1181, 1180
1108, 1130, 1131, 1182, 1181
1109, 1131, 1132, 1183, 1182
1110, 1132, 1133, 1184, 1183
1111, 1133, 1134, 1185, 1184
1112, 1134, 1135, 1186, 1185
1113, 1135, 1136, 1187, 1186
1114, 1136, 1137, 1188, 1187
1115, 1137, 1138, 1189, 1188
1116, 1138, 1139, 1190, 1189
1117, 1139, 1140, 1191, 1190
1118, 1140, 1141, 1192, 1191
1119, 1141, 1142, 1193, 1192
1120, 1142, 1143, 1194, 1193
1121, 1143, 1144, 1195, 1194
1122, 1144, 1145, 1196, 1195
1123, 1145, 1146, 1197, 1196
1124, 1146, 1147, 1198, 1197
1125, 1147, 1148, 1199, 1198
1126, 1148, 1149, 1200, 1199
1127, 1149, 1150, 1201, 1200
1128, 1150, 1151, 1202, 1201
1129, 1151, 1152, 1203, 1202
1130, 1152, 1153, 1204, 1203
1131, 1153, 1154, 1205, 1204
1132, 1154, 1155, 1206, 1205
1133, 1155, 1156, 1207, 1206
1134, 1156, 1157, 1208, 1207
1135, 1157, 1158, 1209, 1208
1136, 1158, 1159, 1210, 1209
1137, 1159, 1160, 1211, 1210
1138, 1160, 1161, 1212, 1211
1139, 1161, 1162, 1213, 1212
1140, 1162, 1163, 1214, 1213
1141, 1163, 1164, 1215, 1214
1142, 1164, 1165, 1216, 1215
1143, 1165, 1166, 1217, 1216
1144, 1166, 1167, 1218, 1217
1145, 1167, 1168, 1219, 1218
1146, 1168, 1169, 1220, 1219
1147, 1169, 1170, 1221, 1220
1148, 1170, 1171, 1222, 1221
1149, 1171, 1172, 1223, 1222
1150, 1172, 1173, 1224, 1223
1151, 1174, 1175, 1226, 1225
1152, 1175, 1176, 1227, 1226
1153, 1176, 1177, 1228, 1227
1154, 1177, 1178, 1229, 1228
1155, 1178, 1179, 1230, 1229
1156, 1179, 1180, 1231, 1230
1157, 1180, 1181, 1232, 1231
1158, 1181, 1182, 1233, 1232
1159, 1182, 1183, 1234, 1233
1160, 1183, 1184, 1235, 1234
1161, 1184, 1185, 1236, 1235
1162, 1185, 1186, 1237, 1236
1163, 1186, 1187, 1238, 1237
1164, 1187, 1188, 1239, 1238
1165, 1188, 1189, 1240, 1239
1166, 1189, 1190, 1241, 1240
1167, 1190, 1191, 1242, 1241
1168, 1191, 1192, 1243, 1242
1169, 1192, 1193, 1244, 1243
1170, 1193, 1194, 1245, 1244
1171, 1194, 1195, 1246, 1245
1172, 1195, 1196, 1247, 1246
1173, 1196, 1197, 1248, 1247
1174, 1197, 1198, 1249, 1248
1175, 1198, 1199, 1250, 1249
1176, 1199, 1200, 1251, 1250
1177, 1200, 1201, 1252, 1251
1178, 1201, 1202, 1253, 1252
1179, 1202, 1203, 1254, 1253
1180, 1203, 1204, 1255, 1254
1181, 1204, 1205, 1256, 1255
1182, 1205, 1206, 1257, 1256
1183, 1206, 1207, 1258, 1257
1184, 1207, 1208, 1259, 1258
1185, 1208, 1209, 1260, 1259
1186, 1209, 1210, 1261, 1260
1187, 1210, 1211, 1262, 1261
1188, 1211, 1212, 1263, 1262
1189, 1212, 1213, 1264, 1263
1190, 1213, 1214, 1265, 1264
1191, 1214, 1215, 1266, 1265
1192, 1215, 1216, 1267, 1266
1193, 1216, 1217, 1268, 1267
1194, 1217, 1218, 1269, 1268
1195, 1218, 1219, 1270, 1269
1196, 1219, 1220, 1271, 1270
1197, 1220, 1221, 1272, 1271
1198, 1221, 1222, 1273, 1272
1199, 1222, 1223, 1274, 1273
1200, 1223, 1224, 1275, 1274
1201, 1225, 1226, 1277, 1276
1202, 1226, 1227, 1278, 1277
1203, 1227, 1228, 1279, 1278
1204, 1228, 1229, 1280, 1279
1205, 1229, 1230, 1281, 1280
1206, 1230, 1231, 1282, 1281
1207, 1231, 1232, 1283, 1282
1208, 1232, 1233, 1284, 1283
1209, 1233, 1234, 1285, 1284
1210, 1234, 1235, 1286, 1285
1211, 1235, 1236, 1287, 1286
1212, 1236, 1237, 1288, 1287
1213, 1237, 1238, 1289, 1288
1214, 1238, 1239, 1290, 1289
1215, 1239, 1240, 1291, 1290
1216, 1240, 1241, 1292, 1291
1217, 1241, 1242, 1293, 1292
1218, 1242, 1243, 1294, 1293
1219, 1243, 1244, 1295, 1294
1220, 1244, 1245, 1296, 1295
1221, 1245, 1246, 1297, 1296
1222, 1246, 1247, 1298, 1297
1223, 1247, 1248, 1299, 1298
1224, 1248, 1249, 1300, 1299
1225, 1249, 1250, 1301, 1300
1226, 1250, 1251, 1302, 1301
1227, 1251, 1252, 1303, 1302
1228, 1252, 1253, 1304, 1303
1229, 1253, 1254, 1305, 1304
1230, 1254, 1255, 1306, 1305
1231, 1255, 1256, 1307, 1306
1232, 1256, 1257, 1308, 1307
1233, 1257, 1258, 1309, 1308
1234, 1258, 1259, 1310, 1309
1235, 1259, 1260, 1311, 1310
1236, 1260, 1261, 1312, 1311
1237, 1261, 1262, 1313, 1312
1238, 1262, 1263, 1314, 1313
1239, 1263, 1264, 1315, 1314
1240, 1264, 1265, 1316, 1315
1241, 1265, 1266, 1317, 1316
1242, 1266, 1267, 1318, 1317
1243, 1267, 1268, 1319, 1318
1244, 1268, 1269, 1320, 1319
1245, 1269, 1270, 1321, 1320
1246, 1270, 1271, 1322, 1321
1247, 1271, 1272, 1323, 1322
1248, 1272, 1273, 1324, 1323
1249, 1273, 1274, 1325, 1324
1250, 1274, 1275, 1326, 1325
1251, 1276, 1277, 1328, 1327
1252, 1277, 1278, 1329, 1328
1253, 1278, 1279, 1330, 1329
1254, 1279, 1280, 1331, 1330
1255, 1280, 1281, 1332, 1331
1256, 1281, 1282, 1333, 1332
1257, 1282, 1283, 1334, 1333
1258, 1283, 1284, 1335, 1334
1259, 1284, 1285, 1336, 1335
1260, 1285, 1286, 1337, 1336
1261, 1286, 1287, 1338, 1337
1262, 1287, 1288, 1339, 1338
1263, 1288, 1289, 1340, 1339
1264, 1289, 1290, 1341, 1340
1265, 1290, 1291, 1342, 1341
1266, 1291, 1292, 1343, 1342
1267, 1292, 1293, 1344, 1343
1268, 1293, 1294, 1345, 1344
1269, 1294, 1295, 1346, 1345
1270, 1295, 1296, 1347, 1346
1271, 1296, 1297, 1348, 1347
1272, 1297, 1298, 1349, 1348
1273, 1298, 1299, 1350, 1349
1274, 1299, 1300, 1351, 1350
1275, 1300, 1301, 1352, 1351
1276, 1301, 1302, 1353, 1352
1277, 1302, 1303, 1354, 1353
1278, 1303, 1304, 1355, 1354
1279, 1304, 1305, 1356, 1355
1280, 1305, 1306, 1357, 1356
1281, 1306, 1307, 1358, 1357
1282, 1307, 1308, 1359, 1358
1283, 1308, 1309, 1360, 1359
1284, 1309, 1310, 1361, 1360
1285, 1310, 1311, 1362, 1361
1286, 1311, 1312, 1363, 1362
1287, 1312, 1313, 1364, 1363
1288, 1313, 1314, 1365, 1364
1289, 1314, 1315, 1366, 1365
1290, 1315, 1316, 1367, 1366
1291, 1316, 1317, 1368, 1367
1292, 1317, 1318, 1369, 1368
1293, 1318, 1319, 1370, 1369
1294, 1319, 1320, 1371, 1370
1295, 1320, 1321, 1372, 1371
1296, 1321, 1322, 1373, 1372
1297, 1322, 1323, 1374, 1373
1298, 1323, 1324, 1375, 1374
1299, 1324, 1325, 1376, 1375
1300, 1325, 1326, 1377, 1376
1301, 1327, 1328, 1379, 1378
1302, 1328, 1329, 1380, 1379
1303, 1329, 1330, 1381, 1380
1304, 1330, 1331, 1382, 1381
1305, 1331, 1332, 1383, 1382
1306, 1332, 1333, 1384, 1383
1307, 1333, 1334, 1385, 1384
1308, 1334, 1335, 1386, 1385
1309, 1335, 1336, 1387, 1386
1310, 1336, 1337, 1388, 1387
1311, 1337, 1338, 1389, 1388
1312, 1338, 1339, 1390, 1389
1313, 1339, 1340, 1391, 1390
1314, 1340, 1341, 1392, 1391
1315, 1341, 1342, 1393, 1392
1316, 1342, 1343, 1394, 1393
1317, 1343, 1344, 1395, 1394
1318, 1344, 1345, 1396, 1395
1319, 1345, 1346, 1397, 1396
1320, 1346, 1347, 1398, 1397
1321, 1347, 1348, 1399, 1398
1322, 1348, 1349, 1400, 1399
1323, 1349, 1350, 1401, 1400
1324, 1350, 1351, 1402, 1401
1325, 1351, 1352, 1403, 1402
1326, 1352, 1353, 1404, 1403
1327, 1353, 1354, 1405, 1404
1328, 1354, 1355, 1406, 1405
1329, 1355, 1356, 1407, 1406
1330, 1356, 1357, 1408, 1407
1331, 1357, 1358, 1409, 1408
1332, 1358, 1359, 1410, 1409
1333, 1359, 1360, 1411, 1410
1334, 1360, 1361, 1412, 1411
1335, 1361, 1362, 1413, 1412
1336, 1362, 1363, 1414, 1413
1337, 1363, 1364, 1415, 1414
1338, 1364, 1365, 1416, 1415
1339, 1365, 1366, 1417, 1416
1340, 1366, 1367, 1418, 1417
1341, 1367, 1368, 1419, 1418
1342, 1368, 1369, 1420, 1419
1343, 1369, 1370, 1421, 1420
1344, 1370, 1371, 1422, 1421
1345, 1371, 1372, 1423, 1422
1346, 1372, 1373, 1424, 1423
1347, 1373, 1374, 1425, 1424
1348, 1374, 1375, 1426, 1425
1349, 1375, 1376, 1427, 1426
1350, 1376, 1377, 1428, 1427
1351, 1378, 1379, 1430, 1429
1352, 1379, 1380, 1431, 1430
1353, 1380, 1381, 1432, 1431
1354, 1381, 1382, 1433, 1432
1355, 1382, 1383, 1434, 1433
1356, 1383, 1384, 1435, 1434
1357, 1384, 1385, 1436, 1435
1358, 1385, 1386, 1437, 1436
1359, 1386, 1387, 1438, 1437
1360, 1387, 1388, 1439, 1438
1361, 1388, 1389, 1440, 1439
1362, 1389, 1390, 1441, 1440
1363, 1390, 1391, 1442, 1441
1364, 1391, 1392, 1443, 1442
1365, 1392, 1393, 1444, 1443
1366, 1393, 1394, 1445, 1444
1367, 1394, 1395, 1446, 1445
1368, 1395, 1396, 1447, 1446
1369, 1396, 1397, 1448, 1447
1370, 1397, 1398, 1449, 1448
1371, 1398, 1399, 1450, 1449
1372, 1399, 1400, 1451, 1450
1373, 1400, 1401, 1452, 1451
1374, 1401, 1402, 1453, 1452
1375, 1402, 1403, 1454, 1453
1376, 1403, 1404, 1455, 1454
1377, 1404, 1405, 1456, 1455
1378, 1405, 1406, 1457, 1456
1379, 1406, 1407, 1458, 1457
1380, 1407, 1408, 1459, 1458
1381, 1408, 1409, 1460, 1459
1382, 1409, 1410, 1461, 1460
1383, 1410, 1411, 1462, 1461
1384, 1411, 1412, 1463, 1462
1385, 1412, 1413, 1464, 1463
1386, 1413, 1414, 1465, 1464
1387, 1414, 1415, 1466, 1465
1388, 1415, 1416, 1467, 1466
1389, 1416, 1417, 1468, 1467
1390, 1417, 1418, 1469, 1468
1391, 1418, 1419, 1470, 1469
1392, 1419, 1420, 1471, 1470
1393, 1420, 1421, 1472, 1471
1394, 1421, 1422, 1473, 1472
1395, 1422, 1423, 1474, 1473
1396, 1423, 1424, 1475, 1474
1397, 1424, 1425, 1476, 1475
1398, 1425, 1426, 1477, 1476
1399, 1426, 1427, 1478, 1477
1400, 1427, 1428, 1479, 1478
1401, 1429, 1430, 1481, 1480
1402, 1430, 1431, 1482, 1481
1403, 1431, 1432, 1483, 1482
1404, 1432, 1433, 1484, 1483
1405, 1433, 1434, 1485, 1484
1406, 1434, 1435, 1486, 1485
1407, 1435, 1436, 1487, 1486
1408, 1436, 1437, 1488, 1487
1409, 1437, 1438, 1489, 1488
1410, 1438, 1439, 1490, 1489
1411, 1439, 1440, 1491, 1490
1412, 1440, 1441, 1492, 1491
1413, 1441, 1442, 1493, 1492
1414, 1442, 1443, 1494, 1493
1415, 1443, 1444, 1495, 1494
1416, 1444, 1445, 1496, 1495
1417, 1445, 1446, 1497, 1496
1418, 1446, 1447, 1498, 1497
1419, 1447, 1448, 1499, 1498
1420, 1448, 1449, 1500, 1499
1421, 1449, 1450, 1501, 1500
1422, 1450, 1451, 1502, 1501
1423, 1451, 1452, 1503, 1502
1424, 1452, 1453, 1504, 1503
1425, 1453, 1454, 1505, 1504
1426, 1454, 1455, 1506, 1505
1427, 1455, 1456, 1507, 1506
1428, 1456, 1457, 1508, 1507
1429, 1457, 1458, 1509, 1508
1430, 1458, 1459, 1510, 1509
1431, 1459, 1460, 1511, 1510
1432, 1460, 1461, 1512, 1511
1433, 1461, 1462, 1513, 1512
1434, 1462, 1463, 1514, 1513
1435, 1463, 1464, 1515, 1514
1436, 1464, 1465, 1516, 1515
1437, 1465, 1466, 1517, 1516
1438, 1466, 1467, 1518, 1517
1439, 1467, 1468, 1519, 1518
1440, 1468, 1469, 1520, 1519
1441, 1469, 1470, 1521, 1520
1442, 1470, 1471, 1522, 1521
1443, 1471, 1472, 1523, 1522
1444, 1472, 1473, 1524, 1523
1445, 1473, 1474, 1525, 1524
1446, 1474, 1475, 1526, 1525
1447, 1475, 1476, 1527, 1526
1448, 1476, 1477, 1528, 1527
1449, 1477, 1478, 1529, 1528
1450, 1478, 1479, 1530, 1529
1451, 1480, 1481, 1532, 1531
1452, 1481, 1482, 1533, 1532
1453, 1482, 1483, 1534, 1533
1454, 1483, 1484, 1535, 1534
1455, 1484, 1485, 1536, 1535
1456, 1485, 1486, 1537, 1536
1457, 1486, 1487, 1538, 1537
1458, 1487, 1488, 1539, 1538
1459, 1488, 1489, 1540, 1539
1460, 1489, 1490, 1541, 1540
1461, 1490, 1491, 1542, 1541
1462, 1491, 1492, 1543, 1542
1463, 1492, 1493, 1544, 1543
1464, 1493, 1494, 1545, 1544
1465, 1494, 1495, 1546, 1545
1466, 1495, 1496, 1547, 1546
1467, 1496, 1497, 1548, 1547
1468, 1497, 1498, 1549, 1548
1469, 1498, 1499, 1550, 1549
1470, 1499, 1500, 1551, 1550
1471, 1500, 1501, 1552, 1551
1472, 1501, 1502, 1553, 1552
1473, 1502, 1503, 1554, 1553
1474, 1503, 1504, 1555, 1554
1475, 1504, 1505, 1556, 1555
1476, 1505, 1506, 1557, 1556
1477, 1506, 1507, 1558, 1557
1478, 1507, 1508, 1559, 1558
1479, 1508, 1509, 1560, 1559
1480, 1509, 1510, 1561, 1560
1481, 1510, 1511, 1562, 1561
1482, 1511, 1512, 1563, 1562
1483, 1512, 1513, 1564, 1563
1484, 1513, 1514, 1565, 1564
1485, 1514, 1515, 1566, 1565
1486, 1515, 1516, 1567, 1566
1487, 1516, 1517, 1568, 1567
1488, 1517, 1518, 1569, 1568
1489, 1518, 1519, 1570, 1569
1490, 1519, 1520, 1571, 1570
1491, 1520, 1521, 1572, 1571
1492, 1521, 1522, 1573, 1572
1493, 1522, 1523, 1574, 1573
1494, 1523, 1524, 1575, 1574
1495, 1524, 1525, 1576, 1575
1496, 1525, 1526, 1577, 1576
1497, 1526, 1527, 1578, 1577
1498, 1527, 1528, 1579, 1578
1499, 1528, 1529, 1580, 1579
1500, 1529, 1530, 1581, 1580
1501, 1531, 1532, 1583, 1582
1502, 1532, 1533, 1584, 1583
1503, 1533, 1534, 1585, 1584
1504, 1534, 1535, 1586, 1585
1505, 1535, 1536, 1587, 1586
1506, 1536, 1537, 1588, 1587
1507, 1537, 1538, 1589, 1588
1508, 1538, 1539, 1590, 1589
1509, 1539, 1540, 1591, 1590
1510, 1540, 1541, 1592, 1591
1511, 1541, 1542, 1593, 1592
1512, 1542, 1543, 1594, 1593
1513, 1543, 1544, 1595, 1594
1514, 1544, 1545, 1596, 1595
1515, 1545, 1546, 1597, 1596
1516, 1546, 1547, 1598, 1597
1517, 1547, 1548, 1599, 1598
1518, 1548, 1549, 1600, 1599
1519, 1549, 1550, 1601, 1600
1520, 1550, 1551, 1602, 1601
1521, 1551, 1552, 1603, 1602
1522, 1552, 1553, 1604, 1603
1523, 1553, 1554, 1605, 1604
1524, 1554, 1555, 1606, 1605
1525, 1555, 1556, 1607, 1606
1526, 1556, 1557, 1608, 1607
1527, 1557, 1558, 1609, 1608
1528, 1558, 1559, 1610, 1609
1529, 1559, 1560, 1611, 1610
1530, 1560, 1561, 1612, 1611
1531, 1561, 1562, 1613, 1612
1532, 1562, 1563, 1614, 1613
1533, 1563, 1564, 1615, 1614
1534, 1564, 1565, 1616, 1615
1535, 1565, 1566, 1617, 1616
1536, 1566, 1567, 1618, 1617
1537, 1567, 1568, 1619, 1618
1538, 1568, 1569, 1620, 1619
1539, 1569, 1570, 1621, 1620
1540, 1570, 1571, 1622, 1621
1541, 1571, 1572, 1623, 1622
1542, 1572, 1573, 1624, 1623
1543, 1573, 1574, 1625, 1624
1544, 1574, 1575, 1626, 1625
1545, 1575, 1576, 1627, 1626
1546, 1576, 1577, 1628, 1627
1547, 1577, 1578, 1629, 1628
1548, 1578, 1579, 1630, 1629
1549, 1579, 1580, 1631, 1630
1550, 1580, 1581, 1632, 1631
1551, 1582, 1583, 1634, 1633
1552, 1583, 1584, 1635, 1634
1553, 1584, 1585, 1636, 1635
1554, 1585, 1586, 1637, 1636
1555, 1586, 1587, 1638, 1637
1556, 1587, 1588, 1639, 1638
1557, 1588, 1589, 1640, 1639
1558, 1589, 1590, 1641, 1640
1559, 1590, 1591, 1642, 1641
1560, 1591, 1592, 1643, 1642
1561, 1592, 1593, 1644, 1643
1562, 1593, 1594, 1645, 1644
1563, 1594, 1595, 1646, 1645
1564, 1595, 1596, 1647, 1646
1565, 1596, 1597, 1648, 1647
1566, 1597, 1598, 1649, 1648
1567, 1598, 1599, 1650, 1649
1568, 1599, 1600, 1651, 1650
1569, 1600, 1601, 1652, 1651
1570, 1601, 1602, 1653, 1652
1571, 1602, 1603, 1654, 1653
1572, 1603, 1604, 1655, 1654
1573, 1604, 1605, 1656, 1655
1574, 1605, 1606, 1657, 1656
1575, 1606, 1607, 1658, 1657
1576, 1607, 1608, 1659, 1658
1577, 1608, 1609, 1660, 1659
1578, 1609, 1610, 1661, 1660
1579, 1610, 1611, 1662, 1661
1580, 1611, 1612, 1663, 1662
1581, 1612, 1613, 1664, 1663
1582, 1613, 1614, 1665, 1664
1583, 1614, 1615, 1666, 1665
1584, 1615, 1616, 1667, 1666
1585, 1616, 1617, 1668, 1667
1586, 1617, 1618, 1669, 1668
1587, 1618, 1619, 1670, 1669
1588, 1619, 1620, 1671, 1670
1589, 1620, 1621, 1672, 1671
1590, 1621, 1622, 1673, 1672
1591, 1622, 1623, 1674, 1673
1592, 1623, 1624, 1675, 1674
1593, 1624, 1625, 1676, 1675
1594, 1625, 1626, 1677, 1676
1595, 1626, 1627, 1678, 1677
1596, 1627, 1628, 1679, 1678
1597, 1628, 1629, 1680, 1679
1598, 1629, 1630, 1681, 1680
1599, 1630, 1631, 1682, 1681
1600, 1631, 1632, 1683, 1682
1601, 1633, 1634, 1685, 1684
1602, 1634, 1635, 1686, 1685
1603, 1635, 1636, 1687, 1686
1604, 1636, 1637, 1688, 1687
1605, 1637, 1638, 1689, 1688
1606, 1638, 1639, 1690, 1689
1607, 1639, 1640, 1691, 1690
1608, 1640, 1641, 1692, 1691
1609, 1641, 1642, 1693, 1692
1610, 1642, 1643, 1694, 1693
1611, 1643, 1644, 1695, 1694
1612, 1644, 1645, 1696, 1695
1613, 1645, 1646, 1697, 1696
1614, 1646, 1647, 1698, 1697
1615, 1647, 1648, 1699, 1698
1616, 1648, 1649, 1700, 1699
1617, 1649, 1650, 1701, 1700
1618, 1650, 1651, 1702, 1701
1619, 1651, 1652, 1703, 1702
1620, 1652, 1653, 1704, 1703
1621, 1653, 1654, 1705, 1704
1622, 1654, 1655, 1706, 1705
1623, 1655, 1656, 1707, 1706
1624, 1656, 1657, 1708, 1707
1625, 1657, 1658, 1709, 1708
1626, 1658, 1659, 1710, 1709
1627, 1659, 1660, 1711, 1710
1628, 1660, 1661, 1712, 1711
1629, 1661, 1662, 1713, 1712
1630, 1662, 1663, 1714, 1713
1631, 1663, 1664, 1715, 1714
1632, 1664, 1665, 1716, 1715
1633, 1665, 1666, 1717, 1716
1634, 1666, 1667, 1718, 1717
1635, 1667, 1668, 1719, 1718
1636, 1668, 1669, 1720, 1719
1637, 1669, 1670, 1721, 1720
1638, 1670, 1671, 1722, 1721
1639, 1671, 1672, 1723, 1722
1640, 1672, 1673, 1724, 1723
1641, 1673, 1674, 1725, 1724
1642, 1674, 1675, 1726, 1725
1643, 1675, 1676, 1727, 1726
1644, 1676, 1677, 1728, 1727
1645, 1677, 1678, 1729, 1728
1646, 1678, 1679, 1730, 1729
1647, 1679, 1680, 1731, 1730
1648, 1680, 1681, 1732, 1731
1649, 1681, 1682, 1733, 1732
1650, 1682, 1683, 1734, 1733
1651, 1684, 1685, 1736, 1735
1652, 1685, 1686, 1737, 1736
1653, 1686, 1687, 1738, 1737
1654, 1687, 1688, 1739, 1738
1655, 1688, 1689, 1740, 1739
1656, 1689, 1690, 1741, 1740
1657, 1690, 1691, 1742, 1741
1658, 1691, 1692, 1743, 1742
1659, 1692, 1693, 1744, 1743
1660, 1693, 1694, 1745, 1744
1661, 1694, 1695, 1746, 1745
1662, 1695, 1696, 1747, 1746
1663, 1696, 1697, 1748, 1747
1664, 1697, 1698, 1749, 1748
1665, 1698, 1699, 1750, 1749
1666, 1699, 1700, 1751, 1750
1667, 1700, 1701, 1752, 1751
1668, 1701, 1702, 1753, 1752
1669, 1702, 1703, 1754, 1753
1670, 1703, 1704, 1755, 1754
1671, 1704, 1705, 1756, 1755
1672, 1705, 1706, 1757, 1756
1673, 1706, 1707, 1758, 1757
1674, 1707, 1708, 1759, 1758
1675, 1708, 1709, 1760, 1759
1676, 1709, 1710, 1761, 1760
1677, 1710, 1711, 1762, 1761
1678, 1711, 1712, 1763, 1762
1679, 1712, 1713, 1764, 1763
1680, 1713, 1714, 1765, 1764
1681, 1714, 1715, 1766, 1765
1682, 1715, 1716, 1767, 1766
1683, 1716, 1717, 1768, 1767
1684, 1717, 1718, 1769, 1768
1685, 1718, 1719, 1770, 1769
1686, 1719, 1720, 1771, 1770
1687, 1720, 1721, 1772, 1771
1688, 1721, 1722, 1773, 1772
1689, 1722, 1723, 1774, 1773
1690, 1723, 1724, 1775, 1774
1691, 1724, 1725, 1776, 1775
1692, 1725, 1726, 1777, 1776
1693, 1726, 1727, 1778, 1777
1694, 1727, 1728, 1779, 1778
1695, 1728, 1729, 1780, 1779
1696, 1729, 1730, 1781, 1780
1697, 1730, 1731, 1782, 1781
1698, 1731, 1732, 1783, 1782
1699, 1732, 1733, 1784, 1783
1700, 1733, 1734, 1785, 1784
1701, 1735, 1736, 1787, 1786
1702, 1736, 1737, 1788, 1787
1703, 1737, 1738, 1789, 1788
1704, 1738, 1739, 1790, 1789
1705, 1739, 1740, 1791, 1790
1706, 1740, 1741, 1792, 1791
1707, 1741, 1742, 1793, 1792
1708, 1742, 1743, 1794, 1793
1709, 1743, 1744, 1795, 1794
1710, 1744, 1745, 1796, 1795
1711, 1745, 1746, 1797, 1796
1712, 1746, 1747, 1798, 1797
1713, 1747, 1748, 1799, 1798
1714, 1748, 1749, 1800, 1799
1715, 1749, 1750, 1801, 1800
1716, 1750, 1751, 1802, 1801
1717, 1751, 1752, 1803, 1802
1718, 1752, 1753, 1804, 1803
1719, 1753, 1754, 1805, 1804
1720, 1754, 1755, 1806, 1805
1721, 1755, 1756, 1807, 1806
1722, 1756, 1757, 1808, 1807
1723, 1757, 1758, 1809, 1808
1724, 1758, 1759, 1810, 1809
1725, 1759, 1760, 1811, 1810
1726, 1760, 1761, 1812, 1811
1727, 1761, 1762, 1813, 1812
1728, 1762, 1763, 1814, 1813
1729, 1763, 1764, 1815, 1814
1730, 1764, 1765, 1816, 1815
1731, 1765, 1766, 1817, 1816
1732, 1766, 1767, 1818, 1817
1733, 1767, 1768, 1819, 1818
1734, 1768, 1769, 1820, 1819
1735, 1769, 1770, 1821, 1820
1736, 1770, 1771, 1822, 1821
1737, 1771, 1772, 1823, 1822
1738, 1772, 1773, 1824, 1823
1739, 1773, 1774, 1825, 1824
1740, 1774, 1775, 1826, 1825
1741, 1775, 1776, 1827, 1826
1742, 1776, 1777, 1828, 1827
1743, 1777, 1778, 1829, 1828
1744, 1778, 1779, 1830, 1829
1745, 1779, 1780, 1831, 1830
1746, 1780, 1781, 1832, 1831
1747, 1781, 1782, 1833, 1832
1748, 1782, 1783, 1834, 1833
1749, 1783, 1784, 1835, 1834
1750, 1784, 1785, 1836, 1835
1751, 1786, 1787, 1838, 1837
1752, 1787, 1788, 1839, 1838
1753, 1788, 1789, 1840, 1839
1754, 1789, 1790, 1841, 1840
1755, 1790, 1791, 1842, 1841
1756, 1791, 1792, 1843, 1842
1757, 1792, 1793, 1844, 1843
1758, 1793, 1794, 1845, 1844
1759, 1794, 1795, 1846, 1845
1760, 1795, 1796, 1847, 1846
1761, 1796, 1797, 1848, 1847
1762, 1797, 1798, 1849, 1848
1763, 1798, 1799, 1850, 1849
1764, 1799, 1800, 1851, 1850
1765, 1800, 1801, 1852, 1851
1766, 1801, 1802, 1853, 1852
1767, 1802, 1803, 1854, 1853
1768, 1803, 1804, 1855, 1854
1769, 1804, 1805, 1856, 1855
1770, 1805, 1806, 1857, 1856
1771, 1806, 1807, 1858, 1857
1772, 1807, 1808, 1859, 1858
1773, 1808, 1809, 1860, 1859
1774, 1809, 1810, 1861, 1860
1775, 1810, 1811, 1862, 1861
1776, 1811, 1812, 1863, 1862
1777, 1812, 1813, 1864, 1863
1778, 1813, 1814, 1865, 1864
1779, 1814, 1815, 1866, 1865
1780, 1815, 1816, 1867, 1866
1781, 1816, 1817, 1868, 1867
1782, 1817, 1818, 1869, 1868
1783, 1818, 1819, 1870, 1869
1784, 1819, 1820, 1871, 1870
1785, 1820, 1821, 1872, 1871
1786, 1821, 1822, 1873, 1872
1787, 1822, 1823, 1874, 1873
1788, 1823, 1824, 1875, 1874
1789, 1824, 1825, 1876, 1875
1790, 1825, 1826, 1877, 1876
1791, 1826, 1827, 1878, 1877
1792, 1827, 1828, 1879, 1878
1793, 1828, 1829, 1880, 1879
1794, 1829, 1830, 1881, 1880
1795, 1830, 1831, 1882, 1881
1796, 1831, 1832, 1883, 1882
1797, 1832, 1833, 1884, 1883
1798, 1833, 1834, 1885, 1884
1799, 1834, 1835, 1886, 1885
1800, 1835, 1836, 1887, 1886
1801, 1837, 1838, 1889, 1888
1802, 1838, 1839, 1890, 1889
1803, 1839, 1840, 1891, 1890
1804, 1840, 1841, 1892, 1891
1805, 1841, 1842, 1893, 1892
1806, 1842, 1843, 1894, 1893
1807, 1843, 1844, 1895, 1894
1808, 1844, 1845, 1896, 1895
1809, 1845, 1846, 1897, 1896
1810, 1846, 1847, 1898, 1897
1811, 1847, 1848, 1899, 1898
1812, 1848, 1849, 1900, 1899
1813, 1849, 1850, 1901, 1900
1814, 1850, 1851, 1902, 1901
1815, 1851, 1852, 1903, 1902
1816, 1852, 1853, 1904, 1903
1817, 1853, 1854, 1905, 1904
1818, 1854, 1855, 1906, 1905
1819, 1855, 1856, 1907, 1906
1820, 1856, 1857, 1908, 1907
1821, 1857, 1858, 1909, 1908
1822, 1858, 1859, 1910, 1909
1823, 1859, 1860, 1911, 1910
1824, 1860, 1861, 1912, 1911
1825, 1861, 1862, 1913, 1912
1826, 1862, 1863, 1914, 1913
1827, 1863, 1864, 1915, 1914
1828, 1864, 1865, 1916, 1915
1829, 1865, 1866, 1917, 1916
1830, 1866, 1867, 1918, 1917
1831, 1867, 1868, 1919, 1918
1832, 1868, 1869, 1920, 1919
1833, 1869, 1870, 1921, 1920
1834, 1870, 1871, 1922, 1921
1835, 1871, 1872, 1923, 1922
1836, 1872, 1873, 1924, 1923
1837, 1873, 1874, 1925, 1924
1838, 1874, 1875, 1926, 1925
1839, 1875, 1876, 1927, 1926
1840, 1876, 1877, 1928, 1927
1841, 1877, 1878, 1929, 1928
1842, 1878, 1879, 1930, 1929
1843, 1879, 1880, 1931, 1930
1844, 1880, 1881, 1932, 1931
1845, 1881, 1882, 1933, 1932
1846, 1882, 1883, 1934, 1933
1847, 1883, 1884, 1935, 1934
1848, 1884, 1885, 1936, 1935
1849, 1885, 1886, 1937, 1936
1850, 1886, 1887, 1938, 1937
1851, 1888, 1889, 1940, 1939
1852, 1889, 1890, 1941, 1940
1853, 1890, 1891, 1942, 1941
1854, 1891, 1892, 1943, 1942
1855, 1892, 1893, 1944, 1943
1856, 1893, 1894, 1945, 1944
1857, 1894, 1895, 1946, 1945
1858, 1895, 1896, 1947, 1946
1859, 1896, 1897, 1948, 1947
1860, 1897, 1898, 1949, 1948
1861, 1898, 1899, 1950, 1949
1862, 1899, 1900, 1951, 1950
1863, 1900, 1901, 1952, 1951
1864, 1901, 1902, 1953, 1952
1865, 1902, 1903, 1954, 1953
1866, 1903, 1904, 1955, 1954
1867, 1904, 1905, 1956, 1955
1868, 1905, 1906, 1957, 1956
1869, 1906, 1907, 1958, 1957
1870, 1907, 1908, 1959, 1958
1871, 1908, 1909, 1960, 1959
1872, 1909, 1910, 1961, 1960
1873, 1910, 1911, 1962, 1961
1874, 1911, 1912, 1963, 1962
1875, 1912, 1913, 1964, 1963
1876, 1913, 1914, 1965, 1964
1877, 1914, 1915, 1966, 1965
1878, 1915, 1916, 1967, 1966
1879, 1916, 1917, 1968, 1967
1880, 1917, 1918, 1969, 1968
1881, 1918, 1919, 1970, 1969
1882, 1919, 1920, 1971, 1970
1883, 1920, 1921, 1972, 1971
1884, 1921, 1922, 1973, 1972
1885, 1922, 1923, 1974, 1973
1886, 1923, 1924, 1975, 1974
1887, 1924, 1925, 1976, 1975
1888, 1925, 1926, 1977, 1976
1889, 1926, 1927, 1978, 1977
1890, 1927, 1928, 1979, 1978
1891, 1928, 1929, 1980, 1979
1892, 1929, 1930, 1981, 1980
1893, 1930, 1931, 1982, 1981
1894, 1931, 1932, 1983, 1982
1895, 1932, 1933, 1984, 1983
1896, 1933, 1934, 1985, 1984
1897, 1934, 1935, 1986, 1985
1898, 1935, 1936, 1987, 1986
1899, 1936, 1937, 1988, 1987
1900, 1937, 1938, 1989, 1988
1901, 1939, 1940, 1991, 1990
1902, 1940, 1941, 1992, 1991
1903, 1941, 1942, 1993, 1992
1904, 1942, 1943, 1994, 1993
1905, 1943, 1944, 1995, 1994
1906, 1944, 1945, 1996, 1995
1907, 1945, 1946, 1997, 1996
1908, 1946, 1947, 1998, 1997
1909, 1947, 1948, 1999, 1998
1910, 1948, 1949, 2000, 1999
1911, 1949, 1950, 2001, 2000
1912, 1950, 1951, 2002, 2001
1913, 1951, 1952, 2003, 2002
1914, 1952, 1953, 2004, 2003
1915, 1953, 1954, 2005, 2004
1916, 1954, 1955, 2006, 2005
1917, 1955, 1956, 2007, 2006
1918, 1956, 1957, 2008, 2007
1919, 1957, 1958, 2009, 2008
1920, 1958, 1959, 2010, 2009
1921, 1959, 1960, 2011, 2010
1922, 1960, 1961, 2012, 2011
1923, 1961, 1962, 2013, 2012
1924, 1962, 1963, 2014, 2013
1925, 1963, 1964, 2015, 2014
1926, 1964, 1965, 2016, 2015
1927, 1965, 1966, 2017, 2016
1928, 1966, 1967, 2018, 2017
1929, 1967, 1968, 2019, 2018
1930, 1968, 1969, 2020, 2019
1931, 1969, 1970, 2021, 2020
1932, 1970, 1971, 2022, 2021
1933, 1971, 1972, 2023, 2022
1934, 1972, 1973, 2024, 2023
1935, 1973, 1974, 2025, 2024
1936, 1974, 1975, 2026, 2025
1937, 1975, 1976, 2027, 2026
1938, 1976, 1977, 2028, 2027
1939, 1977, 1978, 2029, 2028
1940, 1978, 1979, 2030, 2029
1941, 1979, 1980, 2031, 2030
1942, 1980, 1981, 2032, 2031
1943, 1981, 1982, 2033, 2032
1944, 1982, 1983, 2034, 2033
1945, 1983, 1984, 2035, 2034
1946, 1984, 1985, 2036, 2035
1947, 1985, 1986, 2037, 2036
1948, 1986, 1987, 2038, 2037
1949, 1987, 1988, 2039, 2038
1950, 1988, 1989, 2040, 2039
1951, 1990, 1991, 2042, 2041
1952, 1991, 1992, 2043, 2042
1953, 1992, 1993, 2044, 2043
1954, 1993, 1994, 2045, 2044
1955, 1994, 1995, 2046, 2045
1956, 1995, 1996, 2047, 2046
1957, 1996, 1997, 2048, 2047
1958, 1997, 1998, 2049, 2048
1959, 1998, 1999, 2050, 2049
1960, 1999, 2000, 2051, 2050
1961, 2000, 2001, 2052, 2051
1962, 2001, 2002, 2053, 2052
1963, 2002, 2003, 2054, 2053
1964, 2003, 2004, 2055, 2054
1965, 2004, 2005, 2056, 2055
1966, 2005, 2006, 2057, 2056
1967, 2006, 2007, 2058, 2057
1968, 2007, 2008, 2059, 2058
1969, 2008, 2009, 2060, 2059
1970, 2009, 2010, 2061, 2060
1971, 2010, 2011, 2062, 2061
1972, 2011, 2012, 2063, 2062
1973, 2012, 2013, 2064, 2063
1974, 2013, 2014, 2065, 2064
1975, 2014, 2015, 2066, 2065
1976, 2015, 2016, 2067, 2066
1977, 2016, 2017, 2068, 2067
1978, 2017, 2018, 2069, 2068
1979, 2018, 2019, 2070, 2069
1980, 2019, 2020, 2071, 2070
1981, 2020, 2021, 2072, 2071
1982, 2021, 2022, 2073, 2072
1983, 2022, 2023, 2074, 2073
1984, 2023, 2024, 2075, 2074
1985, 2024, 2025, 2076, 2075
1986, 2025, 2026, 2077, 2076
1987, 2026, 2027, 2078, 2077
1988, 2027, 2028, 2079, 2078
1989, 2028, 2029, 2080, 2079
1990, 2029, 2030, 2081, 2080
1991, 2030, 2031, 2082, 2081
1992, 2031, 2032, 2083, 2082
1993, 2032, 2033, 2084, 2083
1994, 2033, 2034, 2085, 2084
1995, 2034, 2035, 2086, 2085
1996, 2035, 2036, 2087, 2086
1997, 2036, 2037, 2088, 2087
1998, 2037, 2038, 2089, 2088
1999, 2038, 2039, 2090, 2089
2000, 2039, 2040, 2091, 2090
2001, 2041, 2042, 2093, 2092
2002, 2042, 2043, 2094, 2093
2003, 2043, 2044, 2095, 2094
2004, 2044, 2045, 2096, 2095
2005, 2045, 2046, 2097, 2096
2006, 2046, 2047, 2098, 2097
2007, 2047, 2048, 2099, 2098
2008, 2048, 2049, 2100, 2099
2009, 2049, 2050, 2101, 2100
2010, 2050, 2051, 2102, 2101
2011, 2051, 2052, 2103, 2102
2012, 2052, 2053, 2104, 2103
2013, 2053, 2054, 2105, 2104
2014, 2054, 2055, 2106, 2105
2015, 2055, 2056, 2107, 2106
2016, 2056, 2057, 2108, 2107
2017, 2057, 2058, 2109, 2108
2018, 2058, 2059, 2110, 2109
2019, 2059, 2060, 2111, 2110
2020, 2060, 2061, 2112, 2111
2021, 2061, 2062, 2113, 2112
2022, 2062, 2063, 2114, 2113
2023, 2063, 2064, 2115, 2114
2024, 2064, 2065, 2116, 2115
2025, 2065, 2066, 2117, 2116
2026, 2066, 2067, 2118, 2117
2027, 2067, 2068, 2119, 2118
2028, 2068, 2069, 2120, 2119
2029, 2069, 2070, 2121, 2120
2030, 2070, 2071, 2122, 2121
2031, 2071, 2072, 2123, 2122
2032, 2072, 2073, 2124, 2123
2033, 2073, 2074, 2125, 2124
2034, 2074, 2075, 2126, 2125
2035, 2075, 2076, 2127, 2126
2036, 2076, 2077, 2128, 2127
2037, 2077, 2078, 2129, 2128
2038, 2078, 2079, 2130, 2129
2039, 2079, 2080, 2131, 2130
2040, 2080, 2081, 2132, 2131
2041, 2081, 2082, 2133, 2132
2042, 2082, 2083, 2134, 2133
2043, 2083, 2084, 2135, 2134
2044, 2084, 2085, 2136, 2135
2045, 2085, 2086, 2137, 2136
2046, 2086, 2087, 2138, 2137
2047, 2087, 2088, 2139, 2138
2048, 2088, 2089, 2140, 2139
2049, 2089, 2090, 2141, 2140
2050, 2090, 2091, 2142, 2141
2051, 2092, 2093, 2144, 2143
2052, 2093, 2094, 2145, 2144
2053, 2094, 2095, 2146, 2145
2054, 2095, 2096, 2147, 2146
2055, 2096, 2097, 2148, 2147
2056, 2097, 2098, 2149, 2148
2057, 2098, 2099, 2150, 2149
2058, 2099, 2100, 2151, 2150
2059, 2100, 2101, 2152, 2151
2060, 2101, 2102, 2153, 2152
2061, 2102, 2103, 2154, 2153
2062, 2103, 2104, 2155, 2154
2063, 2104, 2105, 2156, 2155
2064, 2105, 2106, 2157, 2156
2065, 2106, 2107, 2158, 2157
2066, 2107, 2108, 2159, 2158
2067, 2108, 2109, 2160, 2159
2068, 2109, 2110, 2161, 2160
2069, 2110, 2111, 2162, 2161
2070, 2111, 2112, 2163, 2162
2071, 2112, 2113, 2164, 2163
2072, 2113, 2114, 2165, 2164
2073, 2114, 2115, 2166, 2165
2074, 2115, 2116, 2167, 2166
2075, 2116, 2117, 2168, 2167
2076, 2117, 2118, 2169, 2168
2077, 2118, 2119, 2170, 2169
2078, 2119, 2120, 2171, 2170
2079, 2120, 2121, 2172, 2171
2080, 2121, 2122, 2173, 2172
2081, 2122, 2123, 2174, 2173
2082, 2123, 2124, 2175, 2174
2083, 2124, 2125, 2176, 2175
2084, 2125, 2126, 2177, 2176
2085, 2126, 2127, 2178, 2177
2086, 2127, 2128, 2179, 2178
2087, 2128, 2129, 2180, 2179
2088, 2129, 2130, 2181, 2180
2089, 2130, 2131, 2182, 2181
2090, 2131, 2132, 2183, 2182
2091, 2132, 2133, 2184, 2183
2092, 2133, 2134, 2185, 2184
2093, 2134, 2135, 2186, 2185
2094, 2135, 2136, 2187, 2186
2095, 2136, 2137, 2188, 2187
2096, 2137, 2138, 2189, 2188
2097, 2138, 2139, 2190, 2189
2098, 2139, 2140, 2191, 2190
2099, 2140, 2141, 2192, 2191
2100, 2141, 2142, 2193, 2192
2101, 2143, 2144, 2195, 2194
2102, 2144, 2145, 2196, 2195
2103, 2145, 2146, 2197, 2196
2104, 2146, 2147, 2198, 2197
2105, 2147, 2148, 2199, 2198
2106, 2148, 2149, 2200, 2199
2107, 2149, 2150, 2201, 2200
2108, 2150, 2151, 2202, 2201
2109, 2151, 2152, 2203, 2202
2110, 2152, 2153, 2204, 2203
2111, 2153, 2154, 2205, 2204
2112, 2154, 2155, 2206, 2205
2113, 2155, 2156, 2207, 2206
2114, 2156, 2157, 2208, 2207
2115, 2157, 2158, 2209, 2208
2116, 2158, 2159, 2210, 2209
2117, 2159, 2160, 2211, 2210
2118, 2160, 2161, 2212, 2211
2119, 2161, 2162, 2213, 2212
2120, 2162, 2163, 2214, 2213
2121, 2163, 2164, 2215, 2214
2122, 2164, 2165, 2216, 2215
2123, 2165, 2166, 2217, 2216
2124, 2166, 2167, 2218, 2217
2125, 2167, 2168, 2219, 2218
2126, 2168, 2169, 2220, 2219
2127, 2169, 2170, 2221, 2220
2128, 2170, 2171, 2222, 2221
2129, 2171, 2172, 2223, 2222
2130, 2172, 2173, 2224, 2223
2131, 2173, 2174, 2225, 2224
2132, 2174, 2175, 2226, 2225
2133, 2175, 2176, 2227, 2226
2134, 2176, 2177, 2228, 2227
2135, 2177, 2178, 2229, 2228
2136, 2178, 2179, 2230, 2229
2137, 2179, 2180, 2231, 2230
2138, 2180, 2181, 2232, 2231
2139, 2181, 2182, 2233, 2232
2140, 2182, 2183, 2234, 2233
2141, 2183, 2184, 2235, 2234
2142, 2184, 2185, 2236, 2235
2143, 2185, 2186, 2237, 2236
2144, 2186, 2187, 2238, 2237
2145, 2187, 2188, 2239, 2238
2146, 2188, 2189, 2240, 2239
2147, 2189, 2190, 2241, 2240
2148, 2190, 2191, 2242, 2241
2149, 2191, 2192, 2243, 2242
2150, 2192, 2193, 2244, 2243
2151, 2194, 2195, 2246, 2245
2152, 2195, 2196, 2247, 2246
2153, 2196, 2197, 2248, 2247
2154, 2197, 2198, 2249, 2248
2155, 2198, 2199, 2250, 2249
2156, 2199, 2200, 2251, 2250
2157, 2200, 2201, 2252, 2251
2158, 2201, 2202, 2253, 2252
2159, 2202, 2203, 2254, 2253
2160, 2203, 2204, 2255, 2254
2161, 2204, 2205, 2256, 2255
2162, 2205, 2206, 2257, 2256
2163, 2206, 2207, 2258, 2257
2164, 2207, 2208, 2259, 2258
2165, 2208, 2209, 2260, 2259
2166, 2209, 2210, 2261, 2260
2167, 2210, 2211, 2262, 2261
2168, 2211, 2212, 2263, 2262
2169, 2212, 2213, 2264, 2263
2170, 2213, 2214, 2265, 2264
2171, 2214, 2215, 2266, 2265
2172, 2215, 2216, 2267, 2266
2173, 2216, 2217, 2268, 2267
2174, 2217, 2218, 2269, 2268
2175, 2218, 2219, 2270, 2269
2176, 2219, 2220, 2271, 2270
2177, 2220, 2221, 2272, 2271
2178, 2221, 2222, 2273, 2272
2179, 2222, 2223, 2274, 2273
2180, 2223, 2224, 2275, 2274
2181, 2224, 2225, 2276, 2275
2182, 2225, 2226, 2277, 2276
2183, 2226, 2227, 2278, 2277
2184, 2227, 2228, 2279, 2278
2185, 2228, 2229, 2280, 2279
2186, 2229, 2230, 2281, 2280
2187, 2230, 2231, 2282, 2281
2188, 2231, 2232, 2283, 2282
2189, 2232, 2233, 2284, 2283
2190, 2233, 2234, 2285, 2284
2191, 2234, 2235, 2286, 2285
2192, 2235, 2236, 2287, 2286
2193, 2236, 2237, 2288, 2287
2194, 2237, 2238, 2289, 2288
2195, 2238, 2239, 2290, 2289
2196, 2239, 2240, 2291, 2290
2197, 2240, 2241, 2292, 2291
2198, 2241, 2242, 2293, 2292
2199, 2242, 2243, 2294, 2293
2200, 2243, 2244, 2295, 2294
2201, 2245, 2246, 2297, 2296
2202, 2246, 2247, 2298, 2297
2203, 2247, 2248, 2299, 2298
2204, 2248, 2249, 2300, 2299
2205, 2249, 2250, 2301, 2300
2206, 2250, 2251, 2302, 2301
2207, 2251, 2252, 2303, 2302
2208, 2252, 2253, 2304, 2303
2209, 2253, 2254, 2305, 2304
2210, 2254, 2255, 2306, 2305
2211, 2255, 2256, 2307, 2306
2212, 2256, 2257, 2308, 2307
2213, 2257, 2258, 2309, 2308
2214, 2258, 2259, 2310, 2309
2215, 2259, 2260, 2311, 2310
2216, 2260, 2261, 2312, 2311
2217, 2261, 2262, 2313, 2312
2218, 2262, 2263, 2314, 2313
2219, 2263, 2264, 2315, 2314
2220, 2264, 2265, 2316, 2315
2221, 2265, 2266, 2317, 2316
2222, 2266, 2267, 2318, 2317
2223, 2267, 2268, 2319, 2318
2224, 2268, 2269, 2320, 2319
2225, 2269, 2270, 2321, 2320
2226, 2270, 2271, 2322, 2321
2227, 2271, 2272, 2323, 2322
2228, 2272, 2273, 2324, 2323
2229, 2273, 2274, 2325, 2324
2230, 2274, 2275, 2326, 2325
2231, 2275, 2276, 2327, 2326
2232, 2276, 2277, 2328, 2327
2233, 2277, 2278, 2329, 2328
2234, 2278, 2279, 2330, 2329
2235, 2279, 2280, 2331, 2330
2236, 2280, 2281, 2332, 2331
2237, 2281, 2282, 2333, 2332
2238, 2282, 2283, 2334, 2333
2239, 2283, 2284, 2335, 2334
2240, 2284, 2285, 2336, 2335
2241, 2285, 2286, 2337, 2336
2242, 2286, 2287, 2338, 2337
2243, 2287, 2288, 2339, 2338
2244, 2288, 2289, 2340, 2339
2245, 2289, 2290, 2341, 2340
2246, 2290, 2291, 2342, 2341
2247, 2291, 2292, 2343, 2342
2248, 2292, 2293, 2344, 2343
2249, 2293, 2294, 2345, 2344
2250, 2294, 2295, 2346, 2345
2251, 2296, 2297, 2348, 2347
2252, 2297, 2298, 2349, 2348
2253, 2298, 2299, 2350, 2349
2254, 2299, 2300, 2351, 2350
2255, 2300, 2301, 2352, 2351
2256, 2301, 2302, 2353, 2352
2257, 2302, 2303, 2354, 2353
2258, 2303, 2304, 2355, 2354
2259, 2304, 2305, 2356, 2355
2260, 2305, 2306, 2357, 2356
2261, 2306, 2307, 2358, 2357
2262, 2307, 2308, 2359, 2358
2263, 2308, 2309, 2360, 2359
2264, 2309, 2310, 2361, 2360
2265, 2310, 2311, 2362, 2361
2266, 2311, 2312, 2363, 2362
2267, 2312, 2313, 2364, 2363
2268, 2313, 2314, 2365, 2364
2269, 2314, 2315, 2366, 2365
2270, 2315, 2316, 2367, 2366
2271, 2316, 2317, 2368, 2367
2272, 2317, 2318, 2369, 2368
2273, 2318, 2319, 2370, 2369
2274, 2319, 2320, 2371, 2370
2275, 2320, 2321, 2372, 2371
2276, 2321, 2322, 2373, 2372
2277, 2322, 2323, 2374, 2373
2278, 2323, 2324, 2375, 2374
2279, 2324, 2325, 2376, 2375
2280, 2325, 2326, 2377, 2376
2281, 2326, 2327, 2378, 2377
2282, 2327, 2328, 2379, 2378
2283, 2328, 2329, 2380, 2379
2284, 2329, 2330, 2381, 2380
2285, 2330, 2331, 2382, 2381
2286, 2331, 2332, 2383, 2382
2287, 2332, 2333, 2384, 2383
2288, 2333, 2334, 2385, 2384
2289, 2334, 2335, 2386, 2385
2290, 2335, 2336, 2387, 2386
2291, 2336, 2337, 2388, 2387
2292, 2337, 2338, 2389, 2388
2293, 2338, 2339, 2390, 2389
2294, 2339, 2340, 2391, 2390
2295, 2340, 2341, 2392, 2391
2296, 2341, 2342, 2393, 2392
2297, 2342, 2343, 2394, 2393
2298, 2343, 2344, 2395, 2394
2299, 2344, 2345, 2396, 2395
2300, 2345, 2346, 2397, 2396
2301, 2347, 2348, 2399, 2398
2302, 2348, 2349, 2400, 2399
2303, 2349, 2350, 2401, 2400
2304, 2350, 2351, 2402, 2401
2305, 2351, 2352, 2403, 2402
2306, 2352, 2353, 2404, 2403
2307, 2353, 2354, 2405, 2404
2308, 2354, 2355, 2406, 2405
2309, 2355, 2356, 2407, 2406
2310, 2356, 2357, 2408, 2407
2311, 2357, 2358, 2409, 2408
2312, 2358, 2359, 2410, 2409
2313, 2359, 2360, 2411, 2410
2314, 2360, 2361, 2412, 2411
2315, 2361, 2362, 2413, 2412
2316, 2362, 2363, 2414, 2413
2317, 2363, 2364, 2415, 2414
2318, 2364, 2365, 2416, 2415
2319, 2365, 2366, 2417, 2416
2320, 2366, 2367, 2418, 2417
2321, 2367, 2368, 2419, 2418
2322, 2368, 2369, 2420, 2419
2323, 2369, 2370, 2421, 2420
2324, 2370, 2371, 2422, 2421
2325, 2371, 2372, 2423, 2422
2326, 2372, 2373, 2424, 2423
2327, 2373, 2374, 2425, 2424
2328, 2374, 2375, 2426, 2425
2329, 2375, 2376, 2427, 2426
2330, 2376, 2377, 2428, 2427
2331, 2377, 2378, 2429, 2428
2332, 2378, 2379, 2430, 2429
2333, 2379, 2380, 2431, 2430
2334, 2380, 2381, 2432, 2431
2335, 2381, 2382, 2433, 2432
2336, 2382, 2383, 2434, 2433
2337, 2383, 2384, 2435, 2434
2338, 2384, 2385, 2436, 2435
2339, 2385, 2386, 2437, 2436
2340, 2386, 2387, 2438, 2437
2341, 2387, 2388, 2439, 2438
2342, 2388, 2389, 2440, 2439
2343, 2389, 2390, 2441, 2440
2344, 2390, 2391, 2442, 2441
2345, 2391, 2392, 2443, 2442
2346, 2392, 2393, 2444, 2443
2347, 2393, 2394, 2445, 2444
2348, 2394, 2395, 2446, 2445
2349, 2395, 2396, 2447, 2446
2350, 2396, 2397, 2448, 2447
2351, 2398, 2399, 2450, 2449
2352, 2399, 2400, 2451, 2450
2353, 2400, 2401, 2452, 2451
2354, 2401, 2402, 2453, 2452
2355, 2402, 2403, 2454, 2453
2356, 2403, 2404, 2455, 2454
2357, 2404, 2405, 2456, 2455
2358, 2405, 2406, 2457, 2456
2359, 2406, 2407, 2458, 2457
2360, 2407, 2408, 2459, 2458
2361, 2408, 2409, 2460, 2459
2362, 2409, 2410, 2461, 2460
2363, 2410, 2411, 2462, 2461
2364, 2411, 2412, 2463, 2462
2365, 2412, 2413, 2464, 2463
2366, 2413, 2414, 2465, 2464
2367, 2414, 2415, 2466, 2465
2368, 2415, 2416, 2467, 2466
2369, 2416, 2417, 2468, 2467
2370, 2417, 2418, 2469, 2468
2371, 2418, 2419, 2470, 2469
2372, 2419, 2420, 2471, 2470
2373, 2420, 2421, 2472, 2471
2374, 2421, 2422, 2473, 2472
2375, 2422, 2423, 2474, 2473
2376, 2423, 2424, 2475, 2474
2377, 2424, 2425, 2476, 2475
2378, 2425, 2426, 2477, 2476
2379, 2426, 2427, 2478, 2477
2380, 2427, 2428, 2479, 2478
2381, 2428, 2429, 2480, 2479
2382, 2429, 2430, 2481, 2480
2383, 2430, 2431, 2482, 2481
2384, 2431, 2432, 2483, 2482
2385, 2432, 2433, 2484, 2483
2386, 2433, 2434, 2485, 2484
2387, 2434, 2435, 2486, 2485
2388, 2435, 2436, 2487, 2486
2389, 2436, 2437, 2488, 2487
2390, 2437, 2438, 2489, 2488
2391, 2438, 2439, 2490, 2489
2392, 2439, 2440, 2491, 2490
2393, 2440, 2441, 2492, 2491
2394, 2441, 2442, 2493, 2492
2395, 2442, 2443, 2494, 2493
2396, 2443, 2444, 2495, 2494
2397, 2444, 2445, 2496, 2495
2398, 2445, 2446, 2497, 2496
2399, 2446, 2447, 2498, 2497
2400, 2447, 2448, 2499, 2498
2401, 2449, 2450, 2501, 2500
2402, 2450, 2451, 2502, 2501
2403, 2451, 2452, 2503, 2502
2404, 2452, 2453, 2504, 2503
2405, 2453, 2454, 2505, 2504
2406, 2454, 2455, 2506, 2505
2407, 2455, 2456, 2507, 2506
2408, 2456, 2457, 2508, 2507
2409, 2457, 2458, 2509, 2508
2410, 2458, 2459, 2510, 2509
2411, 2459, 2460, 2511, 2510
2412, 2460, 2461, 2512, 2511
2413, 2461, 2462, 2513, 2512
2414, 2462, 2463, 2514, 2513
2415, 2463, 2464, 2515, 2514
2416, 2464, 2465, 2516, 2515
2417, 2465, 2466, 2517, 2516
2418, 2466, 2467, 2518, 2517
2419, 2467, 2468, 2519, 2518
2420, 2468, 2469, 2520, 2519
2421, 2469, 2470, 2521, 2520
2422, 2470, 2471, 2522, 2521
2423, 2471, 2472, 2523, 2522
2424, 2472, 2473, 2524, 2523
2425, 2473, 2474, 2525, 2524
2426, 2474, 2475, 2526, 2525
2427, 2475, 2476, 2527, 2526
2428, 2476, 2477, 2528, 2527
2429, 2477, 2478, 2529, 2528
2430, 2478, 2479, 2530, 2529
2431, 2479, 2480, 2531, 2530
2432, 2480, 2481, 2532, 2531
2433, 2481, 2482, 2533, 2532
2434, 2482, 2483, 2534, 2533
2435, 2483, 2484, 2535, 2534
2436, 2484, 2485, 2536, 2535
2437, 2485, 2486, 2537, 2536
2438, 2486, 2487, 2538, 2537
2439, 2487, 2488, 2539, 2538
2440, 2488, 2489, 2540, 2539
2441, 2489, 2490, 2541, 2540
2442, 2490, 2491, 2542, 2541
2443, 2491, 2492, 2543, 2542
2444, 2492, 2493, 2544, 2543
2445, 2493, 2494, 2545, 2544
2446, 2494, 2495, 2546, 2545
2447, 2495, 2496, 2547, 2546
2448, 2496, 2497, 2548, 2547
2449, 2497, 2498, 2549, 2548
2450, 2498, 2499, 2550, 2549
2451, 2500, 2501, 2552, 2551
2452, 2501, 2502, 2553, 2552
2453, 2502, 2503, 2554, 2553
2454, 2503, 2504, 2555, 2554
2455, 2504, 2505, 2556, 2555
2456, 2505, 2506, 2557, 2556
2457, 2506, 2507, 2558, 2557
2458, 2507, 2508, 2559, 2558
2459, 2508, 2509, 2560, 2559
2460, 2509, 2510, 2561, 2560
2461, 2510, 2511, 2562, 2561
2462, 2511, 2512, 2563, 2562
2463, 2512, 2513, 2564, 2563
2464, 2513, 2514, 2565, 2564
2465, 2514, 2515, 2566, 2565
2466, 2515, 2516, 2567, 2566
2467, 2516, 2517, 2568, 2567
2468, 2517, 2518, 2569, 2568
2469, 2518, 2519, 2570, 2569
2470, 2519, 2520, 2571, 2570
2471, 2520, 2521, 2572, 2571
2472, 2521, 2522, 2573, 2572
2473, 2522, 2523, 2574, 2573
2474, 2523, 2524, 2575, 2574
2475, 2524, 2525, 2576, 2575
2476, 2525, 2526, 2577, 2576
2477, 2526, 2527, 2578, 2577
2478, 2527, 2528, 2579, 2578
2479, 2528, 2529, 2580, 2579
2480, 2529, 2530, 2581, 2580
2481, 2530, 2531, 2582, 2581
2482, 2531, 2532, 2583, 2582
2483, 2532, 2533, 2584, 2583
2484, 2533, 2534, 2585, 2584
2485, 2534, 2535, 2586, 2585
2486, 2535, 2536, 2587, 2586
2487, 2536, 2537, 2588, 2587
2488, 2537, 2538, 2589, 2588
2489, 2538, 2539, 2590, 2589
2490, 2539, 2540, 2591, 2590
2491, 2540, 2541, 2592, 2591
2492, 2541, 2542, 2593, 2592
2493, 2542, 2543, 2594, 2593
2494, 2543, 2544, 2595, 2594
2495, 2544, 2545, 2596, 2595
2496, 2545, 2546, 2597, 2596
2497, 2546, 2547, 2598, 2597
2498, 2547, 2548, 2599, 2598
2499, 2548, 2549, 2600, 2599
2500, 2549, 2550, 2601, 2600
2501, 2551, 2552, 2603, 2602
2502, 2552, 2553, 2604, 2603
2503, 2553, 2554, 2605, 2604
2504, 2554, 2555, 2606, 2605
2505, 2555, 2556, 2607, 2606
2506, 2556, 2557, 2608, 2607
2507, 2557, 2558, 2609, 2608
2508, 2558, 2559, 2610, 2609
2509, 2559, 2560, 2611, 2610
2510, 2560, 2561, 2612, 2611
2511, 2561, 2562, 2613, 2612
2512, 2562, 2563, 2614, 2613
2513, 2563, 2564, 2615, 2614
2514, 2564, 2565, 2616, 2615
2515, 2565, 2566, 2617, 2616
2516, 2566, 2567, 2618, 2617
2517, 2567, 2568, 2619, 2618
2518, 2568, 2569, 2620, 2619
2519, 2569, 2570, 2621, 2620
2520, 2570, 2571, 2622, 2621
2521, 2571, 2572, 2623, 2622
2522, 2572, 2573, 2624, 2623
2523, 2573, 2574, 2625, 2624
2524, 2574, 2575, 2626, 2625
2525, 2575, 2576, 2627, 2626
2526, 2576, 2577, 2628, 2627
2527, 2577, 2578, 2629, 2628
2528, 2578, 2579, 2630, 2629
2529, 2579, 2580, 2631, 2630
2530, 2580, 2581, 2632, 2631
2531, 2581, 2582, 2633, 2632
2532, 2582, 2583, 2634, 2633
2533, 2583, 2584, 2635, 2634
2534, 2584, 2585, 2636, 2635
2535, 2585, 2586, 2637, 2636
2536, 2586, 2587, 2638, 2637
2537, 2587, 2588, 2639, 2638
2538, 2588, 2589, 2640, 2639
2539, 2589, 2590, 2641, 2640
2540, 2590, 2591, 2642, 2641
2541, 2591, 2592, 2643, 2642
2542, 2592, 2593, 2644, 2643
2543, 2593, 2594, 2645, 2644
2544, 2594, 2595, 2646, 2645
2545, 2595, 2596, 2647, 2646
2546, 2596, 2597, 2648, 2647
2547, 2597, 2598, 2649, 2648
2548, 2598, 2599, 2650, 2649
2549, 2599, 2600, 2651, 2650
2550, 2600, 2601, 2652, 2651
2551, 2602, 2603, 2654, 2653
2552, 2603, 2604, 2655, 2654
2553, 2604, 2605, 2656, 2655
2554, 2605, 2606, 2657, 2656
2555, 2606, 2607, 2658, 2657
2556, 2607, 2608, 2659, 2658
2557, 2608, 2609, 2660, 2659
2558, 2609, 2610, 2661, 2660
2559, 2610, 2611, 2662, 2661
2560, 2611, 2612, 2663, 2662
2561, 2612, 2613, 2664, 2663
2562, 2613, 2614, 2665, 2664
2563, 2614, 2615, 2666, 2665
2564, 2615, 2616, 2667, 2666
2565, 2616, 2617, 2668, 2667
2566, 2617, 2618, 2669, 2668
2567, 2618, 2619, 2670, 2669
2568, 2619, 2620, 2671, 2670
2569, 2620, 2621, 2672, 2671
2570, 2621, 2622, 2673, 2672
2571, 2622, 2623, 2674, 2673
2572, 2623, 2624, 2675, 2674
2573, 2624, 2625, 2676, 2675
2574, 2625, 2626, 2677, 2676
2575, 2626, 2627, 2678, 2677
2576, 2627, 2628, 2679, 2678
2577, 2628, 2629, 2680, 2679
2578, 2629, 2630, 2681, 2680
2579, 2630, 2631, 2682, 2681
2580, 2631, 2632, 2683, 2682
2581, 2632, 2633, 2684, 2683
2582, 2633, 2634, 2685, 2684
2583, 2634, 2635, 2686, 2685
2584, 2635, 2636, 2687, 2686
2585, 2636, 2637, 2688, 2687
2586, 2637, 2638, 2689, 2688
2587, 2638, 2639, 2690, 2689
2588, 2639, 2640, 2691, 2690
2589, 2640, 2641, 2692, 2691
2590, 2641, 2642, 2693, 2692
2591, 2642, 2643, 2694, 2693
2592, 2643, 2644, 2695, 2694
2593, 2644, 2645, 2696, 2695
2594, 2645, 2646, 2697, 2696
2595, 2646, 2647, 2698, 2697
2596, 2647, 2648, 2699, 2698
2597, 2648, 2649, 2700, 2699
2598, 2649, 2650, 2701, 2700
2599, 2650, 2651, 2702, 2701
2600, 2651, 2652, 2703, 2702
2601, 2653, 2654, 2705, 2704
2602, 2654, 2655, 2706, 2705
2603, 2655, 2656, 2707, 2706
2604, 2656, 2657, 2708, 2707
2605, 2657, 2658, 2709, 2708
2606, 2658, 2659, 2710, 2709
2607, 2659, 2660, 2711, 2710
2608, 2660, 2661, 2712, 2711
2609, 2661, 2662, 2713, 2712
2610, 2662, 2663, 2714, 2713
2611, 2663, 2664, 2715, 2714
2612, 2664, 2665, 2716, 2715
2613, 2665, 2666, 2717, 2716
2614, 2666, 2667, 2718, 2717
2615, 2667, 2668, 2719, 2718
2616, 2668, 2669, 2720, 2719
2617, 2669, 2670, 2721, 2720
2618, 2670, 2671, 2722, 2721
2619, 2671, 2672, 2723, 2722
2620, 2672, 2673, 2724, 2723
2621, 2673, 2674, 2725, 2724
2622, 2674, 2675, 2726, 2725
2623, 2675, 2676, 2727, 2726
2624, 2676, 2677, 2728, 2727
2625, 2677, 2678, 2729, 2728
2626, 2678, 2679, 2730, 2729
2627, 2679, 2680, 2731, 2730
2628, 2680, 2681, 2732, 2731
2629, 2681, 2682, 2733, 2732
2630, 2682, 2683, 2734, 2733
2631, 2683, 2684, 2735, 2734
2632, 2684, 2685, 2736, 2735
2633, 2685, 2686, 2737, 2736
2634, 2686, 2687, 2738, 2737
2635, 2687, 2688, 2739, 2738
2636, 2688, 2689, 2740, 2739
2637, 2689, 2690, 2741, 2740
2638, 2690, 2691, 2742, 2741
2639, 2691, 2692, 2743, 2742
2640, 2692, 2693, 2744, 2743
2641, 2693, 2694, 2745, 2744
2642, 2694, 2695, 2746, 2745
2643, 2695, 2696, 2747, 2746
2644, 2696, 2697, 2748, 2747
2645, 2697, 2698, 2749, 2748
2646, 2698, 2699, 2750, 2749
2647, 2699, 2700, 2751, 2750
2648, 2700, 2701, 2752, 2751
2649, 2701, 2702, 2753, 2752
2650, 2702, 2703, 2754, 2753
2651, 2704, 2705, 2756, 2755
2652, 2705, 2706, 2757, 2756
2653, 2706, 2707, 2758, 2757
2654, 2707, 2708, 2759, 2758
2655, 2708, 2709, 2760, 2759
2656, 2709, 2710, 2761, 2760
2657, 2710, 2711, 2762, 2761
2658, 2711, 2712, 2763, 2762
2659, 2712, 2713, 2764, 2763
2660, 2713, 2714, 2765, 2764
2661, 2714, 2715, 2766, 2765
2662, 2715, 2716, 2767, 2766
2663, 2716, 2717, 2768, 2767
2664, 2717, 2718, 2769, 2768
2665, 2718, 2719, 2770, 2769
2666, 2719, 2720, 2771, 2770
2667, 2720, 2721, 2772, 2771
2668, 2721, 2722, 2773, 2772
2669, 2722, 2723, 2774, 2773
2670, 2723, 2724, 2775, 2774
2671, 2724, 2725, 2776, 2775
2672, 2725, 2726, 2777, 2776
2673, 2726, 2727, 2778, 2777
2674, 2727, 2728, 2779, 2778
2675, 2728, 2729, 2780, 2779
2676, 2729, 2730, 2781, 2780
2677, 2730, 2731, 2782, 2781
2678, 2731, 2732, 2783, 2782
2679, 2732, 2733, 2784, 2783
2680, 2733, 2734, 2785, 2784
2681, 2734, 2735, 2786, 2785
2682, 2735, 2736, 2787, 2786
2683, 2736, 2737, 2788, 2787
2684, 2737, 2738, 2789, 2788
2685, 2738, 2739, 2790, 2789
2686, 2739, 2740, 2791, 2790
2687, 2740, 2741, 2792, 2791
2688, 2741, 2742, 2793, 2792
2689, 2742, 2743, 2794, 2793
2690, 2743, 2744, 2795, 2794
2691, 2744, 2745, 2796, 2795
2692, 2745, 2746, 2797, 2796
2693, 2746, 2747, 2798, 2797
2694, 2747, 2748, 2799, 2798
2695, 2748, 2749, 2800, 2799
2696, 2749, 2750, 2801, 2800
2697, 2750, 2751, 2802, 2801
2698, 2751, 2752, 2803, 2802
2699, 2752, 2753, 2804, 2803
2700, 2753, 2754, 2805, 2804
2701, 2755, 2756, 2807, 2806
2702, 2756, 2757, 2808, 2807
2703, 2757, 2758, 2809, 2808
2704, 2758, 2759, 2810, 2809
2705, 2759, 2760, 2811, 2810
2706, 2760, 2761, 2812, 2811
2707, 2761, 2762, 2813, 2812
2708, 2762, 2763, 2814, 2813
2709, 2763, 2764, 2815, 2814
2710, 2764, 2765, 2816, 2815
2711, 2765, 2766, 2817, 2816
2712, 2766, 2767, 2818, 2817
2713, 2767, 2768, 2819, 2818
2714, 2768, 2769, 2820, 2819
2715, 2769, 2770, 2821, 2820
2716, 2770, 2771, 2822, 2821
2717, 2771, 2772, 2823, 2822
2718, 2772, 2773, 2824, 2823
2719, 2773, 2774, 2825, 2824
2720, 2774, 2775, 2826, 2825
2721, 2775, 2776, 2827, 2826
2722, 2776, 2777, 2828, 2827
2723, 2777, 2778, 2829, 2828
2724, 2778, 2779, 2830, 2829
2725, 2779, 2780, 2831, 2830
2726, 2780, 2781, 2832, 2831
2727, 2781, 2782, 2833, 2832
2728, 2782, 2783, 2834, 2833
2729, 2783, 2784, 2835, 2834
2730, 2784, 2785, 2836, 2835
2731, 2785, 2786, 2837, 2836
2732, 2786, 2787, 2838, 2837
2733, 2787, 2788, 2839, 2838
2734, 2788, 2789, 2840, 2839
2735, 2789, 2790, 2841, 2840
2736, 2790, 2791, 2842, 2841
2737, 2791, 2792, 2843, 2842
2738, 2792, 2793, 2844, 2843
2739, 2793, 2794, 2845, 2844
2740, 2794, 2795, 2846, 2845
2741, 2795, 2796, 2847, 2846
2742, 2796, 2797, 2848, 2847
2743, 2797, 2798, 2849, 2848
2744, 2798, 2799, 2850, 2849
2745, 2799, 2800, 2851, 2850
2746, 2800, 2801, 2852, 2851
2747, 2801, 2802, 2853, 2852
2748, 2802, 2803, 2854, 2853
2749, 2803, 2804, 2855, 2854
2750, 2804, 2805, 2856, 2855
2751, 2806, 2807, 2858, 2857
2752, 2807, 2808, 2859, 2858
2753, 2808, 2809, 2860, 2859
2754, 2809, 2810, 2861, 2860
2755, 2810, 2811, 2862, 2861
2756, 2811, 2812, 2863, 2862
2757, 2812, 2813, 2864, 2863
2758, 2813, 2814, 2865, 2864
2759, 2814, 2815, 2866, 2865
2760, 2815, 2816, 2867, 2866
2761, 2816, 2817, 2868, 2867
2762, 2817, 2818, 2869, 2868
2763, 2818, 2819, 2870, 2869
2764, 2819, 2820, 2871, 2870
2765, 2820, 2821, 2872, 2871
2766, 2821, 2822, 2873, 2872
2767, 2822, 2823, 2874, 2873
2768, 2823, 2824, 2875, 2874
2769, 2824, 2825, 2876, 2875
2770, 2825, 2826, 2877, 2876
2771, 2826, 2827, 2878, 2877
2772, 2827, 2828, 2879, 2878
2773, 2828, 2829, 2880, 2879
2774, 2829, 2830, 2881, 2880
2775, 2830, 2831, 2882, 2881
2776, 2831, 2832, 2883, 2882
2777, 2832, 2833, 2884, 2883
2778, 2833, 2834, 2885, 2884
2779, 2834, 2835, 2886, 2885
2780, 2835, 2836, 2887, 2886
2781, 2836, 2837, 2888, 2887
2782, 2837, 2838, 2889, 2888
2783, 2838, 2839, 2890, 2889
2784, 2839, 2840, 2891, 2890
2785, 2840, 2841, 2892, 2891
2786, 2841, 2842, 2893, 2892
2787, 2842, 2843, 2894, 2893
2788, 2843, 2844, 2895, 2894
2789, 2844, 2845, 2896, 2895
2790, 2845, 2846, 2897, 2896
2791, 2846, 2847, 2898, 2897
2792, 2847, 2848, 2899, 2898
2793, 2848, 2849, 2900, 2899
2794, 2849, 2850, 2901, 2900
2795, 2850, 2851, 2902, 2901
2796, 2851, 2852, 2903, 2902
2797, 2852, 2853, 2904, 2903
2798, 2853, 2854, 2905, 2904
2799, 2854, 2855, 2906, 2905
2800, 2855, 2856, 2907, 2906
2801, 2857, 2858, 2909, 2908
2802, 2858, 2859, 2910, 2909
2803, 2859, 2860, 2911, 2910
2804, 2860, 2861, 2912, 2911
2805, 2861, 2862, 2913, 2912
2806, 2862, 2863, 2914, 2913
2807, 2863, 2864, 2915, 2914
2808, 2864, 2865, 2916, 2915
2809, 2865, 2866, 2917, 2916
2810, 2866, 2867, 2918, 2917
2811, 2867, 2868, 2919, 2918
2812, 2868, 2869, 2920, 2919
2813, 2869, 2870, 2921, 2920
2814, 2870, 2871, 2922, 2921
2815, 2871, 2872, 2923, 2922
2816, 2872, 2873, 2924, 2923
2817, 2873, 2874, 2925, 2924
2818, 2874, 2875, 2926, 2925
2819, 2875, 2876, 2927, 2926
2820, 2876, 2877, 2928, 2927
2821, 2877, 2878, 2929, 2928
2822, 2878, 2879, 2930, 2929
2823, 2879, 2880, 2931, 2930
2824, 2880, 2881, 2932, 2931
2825, 2881, 2882, 2933, 2932
2826, 2882, 2883, 2934, 2933
2827, 2883, 2884, 2935, 2934
2828, 2884, 2885, 2936, 2935
2829, 2885, 2886, 2937, 2936
2830, 2886, 2887, 2938, 2937
2831, 2887, 2888, 2939, 2938
2832, 2888, 2889, 2940, 2939
2833, 2889, 2890, 2941, 2940
2834, 2890, 2891, 2942, 2941
2835, 2891, 2892, 2943, 2942
2836, 2892, 2893, 2944, 2943
2837, 2893, 2894, 2945, 2944
2838, 2894, 2895, 2946, 2945
2839, 2895, 2896, 2947, 2946
2840, 2896, 2897, 2948, 2947
2841, 2897, 2898, 2949, 2948
2842, 2898, 2899, 2950, 2949
2843, 2899, 2900, 2951, 2950
2844, 2900, 2901, 2952, 2951
2845, 2901, 2902, 2953, 2952
2846, 2902, 2903, 2954, 2953
2847, 2903, 2904, 2955, 2954
2848, 2904, 2905, 2956, 2955
2849, 2905, 2906, 2957, 2956
2850, 2906, 2907, 2958, 2957
2851, 2908, 2909, 2960, 2959
2852, 2909, 2910, 2961, 2960
2853, 2910, 2911, 2962, 2961
2854, 2911, 2912, 2963, 2962
2855, 2912, 2913, 2964, 2963
2856, 2913, 2914, 2965, 2964
2857, 2914, 2915, 2966, 2965
2858, 2915, 2916, 2967, 2966
2859, 2916, 2917, 2968, 2967
2860, 2917, 2918, 2969, 2968
2861, 2918, 2919, 2970, 2969
2862, 2919, 2920, 2971, 2970
2863, 2920, 2921, 2972, 2971
2864, 2921, 2922, 2973, 2972
2865, 2922, 2923, 2974, 2973
2866, 2923, 2924, 2975, 2974
2867, 2924, 2925, 2976, 2975
2868, 2925, 2926, 2977, 2976
2869, 2926, 2927, 2978, 2977
2870, 2927, 2928, 2979, 2978
2871, 2928, 2929, 2980, 2979
2872, 2929, 2930, 2981, 2980
2873, 2930, 2931, 2982, 2981
2874, 2931, 2932, 2983, 2982
2875, 2932, 2933, 2984, 2983
2876, 2933, 2934, 2985, 2984
2877, 2934, 2935, 2986, 2985
2878, 2935, 2936, 2987, 2986
2879, 2936, 2937, 2988, 2987
2880, 2937, 2938, 2989, 2988
2881, 2938, 2939, 2990, 2989
2882, 2939, 2940, 2991, 2990
2883, 2940, 2941, 2992, 2991
2884, 2941, 2942, 2993, 2992
2885, 2942, 2943, 2994, 2993
2886, 2943, 2944, 2995, 2994
2887, 2944, 2945, 2996, 2995
2888, 2945, 2946, 2997, 2996
2889, 2946, 2947, 2998, 2997
2890, 2947, 2948, 2999, 2998
2891, 2948, 2949, 3000, 2999
2892, 2949, 2950, 3001, 3000
2893, 2950, 2951, 3002, 3001
2894, 2951, 2952, 3003, 3002
2895, 2952, 2953, 3004, 3003
2896, 2953, 2954, 3005, 3004
2897, 2954, 2955, 3006, 3005
2898, 2955, 2956, 3007, 3006
2899, 2956, 2957, 3008, 3007
2900, 2957, 2958, 3009, 3008
2901, 2959, 2960, 3011, 3010
2902, 2960, 2961, 3012, 3011
2903, 2961, 2962, 3013, 3012
2904, 2962, 2963, 3014, 3013
2905, 2963, 2964, 3015, 3014
2906, 2964, 2965, 3016, 3015
2907, 2965, 2966, 3017, 3016
2908, 2966, 2967, 3018, 3017
2909, 2967, 2968, 3019, 3018
2910, 2968, 2969, 3020, 3019
2911, 2969, 2970, 3021, 3020
2912, 2970, 2971, 3022, 3021
2913, 2971, 2972, 3023, 3022
2914, 2972, 2973, 3024, 3023
2915, 2973, 2974, 3025, 3024
2916, 2974, 2975, 3026, 3025
2917, 2975, 2976, 3027, 3026
2918, 2976, 2977, 3028, 3027
2919, 2977, 2978, 3029, 3028
2920, 2978, 2979, 3030, 3029
2921, 2979, 2980, 3031, 3030
2922, 2980, 2981, 3032, 3031
2923, 2981, 2982, 3033, 3032
2924, 2982, 2983, 3034, 3033
2925, 2983, 2984, 3035, 3034
2926, 2984, 2985, 3036, 3035
2927, 2985, 2986, 3037, 3036
2928, 2986, 2987, 3038, 3037
2929, 2987, 2988, 3039, 3038
2930, 2988, 2989, 3040, 3039
2931, 2989, 2990, 3041, 3040
2932, 2990, 2991, 3042, 3041
2933, 2991, 2992, 3043, 3042
2934, 2992, 2993, 3044, 3043
2935, 2993, 2994, 3045, 3044
2936, 2994, 2995, 3046, 3045
2937, 2995, 2996, 3047, 3046
2938, 2996, 2997, 3048, 3047
2939, 2997, 2998, 3049, 3048
2940, 2998, 2999, 3050, 3049
2941, 2999, 3000, 3051, 3050
2942, 3000, 3001, 3052, 3051
2943, 3001, 3002, 3053, 3052
2944, 3002, 3003, 3054, 3053
2945, 3003, 3004, 3055, 3054
2946, 3004, 3005, 3056, 3055
2947, 3005, 3006, 3057, 3056
2948, 3006, 3007, 3058, 3057
2949, 3007, 3008, 3059, 3058
2950, 3008, 3009, 3060, 3059
2951, 3010, 3011, 3062, 3061
2952, 3011, 3012, 3063, 3062
2953, 3012, 3013, 3064, 3063
2954, 3013, 3014, 3065, 3064
2955, 3014, 3015, 3066, 3065
2956, 3015, 3016, 3067, 3066
2957, 3016, 3017, 3068, 3067
2958, 3017, 3018, 3069, 3068
2959, 3018, 3019, 3070, 3069
2960, 3019, 3020, 3071, 3070
2961, 3020, 3021, 3072, 3071
2962, 3021, 3022, 3073, 3072
2963, 3022, 3023, 3074, 3073
2964, 3023, 3024, 3075, 3074
2965, 3024, 3025, 3076, 3075
2966, 3025, 3026, 3077, 3076
2967, 3026, 3027, 3078, 3077
2968, 3027, 3028, 3079, 3078
2969, 3028, 3029, 3080, 3079
2970, 3029, 3030, 3081, 3080
2971, 3030, 3031, 3082, 3081
2972, 3031, 3032, 3083, 3082
2973, 3032, 3033, 3084, 3083
2974, 3033, 3034, 3085, 3084
2975, 3034, 3035, 3086, 3085
2976, 3035, 3036, 3087, 3086
2977, 3036, 3037, 3088, 3087
2978, 3037, 3038, 3089, 3088
2979, 3038, 3039, 3090, 3089
2980, 3039, 3040, 3091, 3090
2981, 3040, 3041, 3092, 3091
2982, 3041, 3042, 3093, 3092
2983, 3042, 3043, 3094, 3093
2984, 3043, 3044, 3095, 3094
2985, 3044, 3045, 3096, 3095
2986, 3045, 3046, 3097, 3096
2987, 3046, 3047, 3098, 3097
2988, 3047, 3048, 3099, 3098
2989, 3048, 3049, 3100, 3099
2990, 3049, 3050, 3101, 3100
2991, 3050, 3051, 3102, 3101
2992, 3051, 3052, 3103, 3102
2993, 3052, 3053, 3104, 3103
2994, 3053, 3054, 3105, 3104
2995, 3054, 3055, 3106, 3105
2996, 3055, 3056, 3107, 3106
2997, 3056, 3057, 3108, 3107
2998, 3057, 3058, 3109, 3108
2999, 3058, 3059, 3110, 3109
3000, 3059, 3060, 3111, 3110
3001, 3061, 3062, 3113, 3112
3002, 3062, 3063, 3114, 3113
3003, 3063, 3064, 3115, 3114
3004, 3064, 3065, 3116, 3115
3005, 3065, 3066, 3117, 3116
3006, 3066, 3067, 3118, 3117
3007, 3067, 3068, 3119, 3118
3008, 3068, 3069, 3120, 3119
3009, 3069, 3070, 3121, 3120
3010, 3070, 3071, 3122, 3121
3011, 3071, 3072, 3123, 3122
3012, 3072, 3073, 3124, 3123
3013, 3073, 3074, 3125, 3124
3014, 3074, 3075, 3126, 3125
3015, 3075, 3076, 3127, 3126
3016, 3076, 3077, 3128, 3127
3017, 3077, 3078, 3129, 3128
3018, 3078, 3079, 3130, 3129
3019, 3079, 3080, 3131, 3130
3020, 3080, 3081, 3132, 3131
3021, 3081, 3082, 3133, 3132
3022, 3082, 3083, 3134, 3133
3023, 3083, 3084, 3135, 3134
3024, 3084, 3085, 3136, 3135
3025, 3085, 3086, 3137, 3136
3026, 3086, 3087, 3138, 3137
3027, 3087, 3088, 3139, 3138
3028, 3088, 3089, 3140, 3139
3029, 3089, 3090, 3141, 3140
3030, 3090, 3091, 3142, 3141
3031, 3091, 3092, 3143, 3142
3032, 3092, 3093, 3144, 3143
3033, 3093, 3094, 3145, 3144
3034, 3094, 3095, 3146, 3145
3035, 3095, 3096, 3147, 3146
3036, 3096, 3097, 3148, 3147
3037, 3097, 3098, 3149, 3148
3038, 3098, 3099, 3150, 3149
3039, 3099, 3100, 3151, 3150
3040, 3100, 3101, 3152, 3151
3041, 3101, 3102, 3153, 3152
3042, 3102, 3103, 3154, 3153
3043, 3103, 3104, 3155, 3154
3044, 3104, 3105, 3156, 3155
3045, 3105, 3106, 3157, 3156
3046, 3106, 3107, 3158, 3157
3047, 3107, 3108, 3159, 3158
3048, 3108, 3109, 3160, 3159
3049, 3109, 3110, 3161, 3160
3050, 3110, 3111, 3162, 3161
3051, 3112, 3113, 3164, 3163
3052, 3113, 3114, 3165, 3164
3053, 3114, 3115, 3166, 3165
3054, 3115, 3116, 3167, 3166
3055, 3116, 3117, 3168, 3167
3056, 3117, 3118, 3169, 3168
3057, 3118, 3119, 3170, 3169
3058, 3119, 3120, 3171, 3170
3059, 3120, 3121, 3172, 3171
3060, 3121, 3122, 3173, 3172
3061, 3122, 3123, 3174, 3173
3062, 3123, 3124, 3175, 3174
3063, 3124, 3125, 3176, 3175
3064, 3125, 3126, 3177, 3176
3065, 3126, 3127, 3178, 3177
3066, 3127, 3128, 3179, 3178
3067, 3128, 3129, 3180, 3179
3068, 3129, 3130, 3181, 3180
3069, 3130, 3131, 3182, 3181
3070, 3131, 3132, 3183, 3182
3071, 3132, 3133, 3184, 3183
3072, 3133, 3134, 3185, 3184
3073, 3134, 3135, 3186, 3185
3074, 3135, 3136, 3187, 3186
3075, 3136, 3137, 3188, 3187
3076, 3137, 3138, 3189, 3188
3077, 3138, 3139, 3190, 3189
3078, 3139, 3140, 3191, 3190
3079, 3140, 3141, 3192, 3191
3080, 3141, 3142, 3193, 3192
3081, 3142, 3143, 3194, 3193
3082, 3143, 3144, 3195, 3194
3083, 3144, 3145, 3196, 3195
3084, 3145, 3146, 3197, 3196
3085, 3146, 3147, 3198, 3197
3086, 3147, 3148, 3199, 3198
3087, 3148, 3149, 3200, 3199
3088, 3149, 3150, 3201, 3200
3089, 3150, 3151, 3202, 3201
3090, 3151, 3152, 3203, 3202
3091, 3152, 3153, 3204, 3203
3092, 3153, 3154, 3205, 3204
3093, 3154, 3155, 3206, 3205
3094, 3155, 3156, 3207, 3206
3095, 3156, 3157, 3208, 3207
3096, 3157, 3158, 3209, 3208
3097, 3158, 3159, 3210, 3209
3098, 3159, 3160, 3211, 3210
3099, 3160, 3161, 3212, 3211
3100, 3161, 3162, 3213, 3212
3101, 3163, 3164, 3215, 3214
3102, 3164, 3165, 3216, 3215
3103, 3165, 3166, 3217, 3216
3104, 3166, 3167, 3218, 3217
3105, 3167, 3168, 3219, 3218
3106, 3168, 3169, 3220, 3219
3107, 3169, 3170, 3221, 3220
3108, 3170, 3171, 3222, 3221
3109, 3171, 3172, 3223, 3222
3110, 3172, 3173, 3224, 3223
3111, 3173, 3174, 3225, 3224
3112, 3174, 3175, 3226, 3225
3113, 3175, 3176, 3227, 3226
3114, 3176, 3177, 3228, 3227
3115, 3177, 3178, 3229, 3228
3116, 3178, 3179, 3230, 3229
3117, 3179, 3180, 3231, 3230
3118, 3180, 3181, 3232, 3231
3119, 3181, 3182, 3233, 3232
3120, 3182, 3183, 3234, 3233
3121, 3183, 3184, 3235, 3234
3122, 3184, 3185, 3236, 3235
3123, 3185, 3186, 3237, 3236
3124, 3186, 3187, 3238, 3237
3125, 3187, 3188, 3239, 3238
3126, 3188, 3189, 3240, 3239
3127, 3189, 3190, 3241, 3240
3128, 3190, 3191, 3242, 3241
3129, 3191, 3192, 3243, 3242
3130, 3192, 3193, 3244, 3243
3131, 3193, 3194, 3245, 3244
3132, 3194, 3195, 3246, 3245
3133, 3195, 3196, 3247, 3246
3134, 3196, 3197, 3248, 3247
3135, 3197, 3198, 3249, 3248
3136, 3198, 3199, 3250, 3249
3137, 3199, 3200, 3251, 3250
3138, 3200, 3201, 3252, 3251
3139, 3201, 3202, 3253, 3252
3140, 3202, 3203, 3254, 3253
3141, 3203, 3204, 3255, 3254
3142, 3204, 3205, 3256, 3255
3143, 3205, 3206, 3257, 3256
3144, 3206, 3207, 3258, 3257
3145, 3207, 3208, 3259, 3258
3146, 3208, 3209, 3260, 3259
3147, 3209, 3210, 3261, 3260
3148, 3210, 3211, 3262, 3261
3149, 3211, 3212, 3263, 3262
3150, 3212, 3213, 3264, 3263
3151, 3214, 3215, 3266, 3265
3152, 3215, 3216, 3267, 3266
3153, 3216, 3217, 3268, 3267
3154, 3217, 3218, 3269, 3268
3155, 3218, 3219, 3270, 3269
3156, 3219, 3220, 3271, 3270
3157, 3220, 3221, 3272, 3271
3158, 3221, 3222, 3273, 3272
3159, 3222, 3223, 3274, 3273
3160, 3223, 3224, 3275, 3274
3161, 3224, 3225, 3276, 3275
3162, 3225, 3226, 3277, 3276
3163, 3226, 3227, 3278, 3277
3164, 3227, 3228, 3279, 3278
3165, 3228, 3229, 3280, 3279
3166, 3229, 3230, 3281, 3280
3167, 3230, 3231, 3282, 3281
3168, 3231, 3232, 3283, 3282
3169, 3232, 3233, 3284, 3283
3170, 3233, 3234, 3285, 3284
3171, 3234, 3235, 3286, 3285
3172, 3235, 3236, 3287, 3286
3173, 3236, 3237, 3288, 3287
3174, 3237, 3238, 3289, 3288
3175, 3238, 3239, 3290, 3289
3176, 3239, 3240, 3291, 3290
3177, 3240, 3241, 3292, 3291
3178, 3241, 3242, 3293, 3292
3179, 3242, 3243, 3294, 3293
3180, 3243, 3244, 3295, 3294
3181, 3244, 3245, 3296, 3295
3182, 3245, 3246, 3297, 3296
3183, 3246, 3247, 3298, 3297
3184, 3247, 3248, 3299, 3298
3185, 3248, 3249, 3300, 3299
3186, 3249, 3250, 3301, 3300
3187, 3250, 3251, 3302, 3301
3188, 3251, 3252, 3303, 3302
3189, 3252, 3253, 3304, 3303
3190, 3253, 3254, 3305, 3304
3191, 3254, 3255, 3306, 3305
3192, 3255, 3256, 3307, 3306
3193, 3256, 3257, 3308, 3307
3194, 3257, 3258, 3309, 3308
3195, 3258, 3259, 3310, 3309
3196, 3259, 3260, 3311, 3310
3197, 3260, 3261, 3312, 3311
3198, 3261, 3262, 3313, 3312
3199, 3262, 3263, 3314, 3313
3200, 3263, 3264, 3315, 3314
3201, 3265, 3266, 3317, 3316
3202, 3266, 3267, 3318, 3317
3203, 3267, 3268, 3319, 3318
3204, 3268, 3269, 3320, 3319
3205, 3269, 3270, 3321, 3320
3206, 3270, 3271, 3322, 3321
3207, 3271, 3272, 3323, 3322
3208, 3272, 3273, 3324, 3323
3209, 3273, 3274, 3325, 3324
3210, 3274, 3275, 3326, 3325
3211, 3275, 3276, 3327, 3326
3212, 3276, 3277, 3328, 3327
3213, 3277, 3278, 3329, 3328
3214, 3278, 3279, 3330, 3329
3215, 3279, 3280, 3331, 3330
3216, 3280, 3281, 3332, 3331
3217, 3281, 3282, 3333, 3332
3218, 3282, 3283, 3334, 3333
3219, 3283, 3284, 3335, 3334
3220, 3284, 3285, 3336, 3335
3221, 3285, 3286, 3337, 3336
3222, 3286, 3287, 3338, 3337
3223, 3287, 3288, 3339, 3338
3224, 3288, 3289, 3340, 3339
3225, 3289, 3290, 3341, 3340
3226, 3290, 3291, 3342, 3341
3227, 3291, 3292, 3343, 3342
3228, 3292, 3293, 3344, 3343
3229, 3293, 3294, 3345, 3344
3230, 3294, 3295, 3346, 3345
3231, 3295, 3296, 3347, 3346
3232, 3296, 3297, 3348, 3347
3233, 3297, 3298, 3349, 3348
3234, 3298, 3299, 3350, 3349
3235, 3299, 3300, 3351, 3350
3236, 3300, 3301, 3352, 3351
3237, 3301, 3302, 3353, 3352
3238, 3302, 3303, 3354, 3353
3239, 3303, 3304, 3355, 3354
3240, 3304, 3305, 3356, 3355
3241, 3305, 3306, 3357, 3356
3242, 3306, 3307, 3358, 3357
3243, 3307, 3308, 3359, 3358
3244, 3308, 3309, 3360, 3359
3245, 3309, 3310, 3361, 3360
3246, 3310, 3311, 3362, 3361
3247, 3311, 3312, 3363, 3362
3248, 3312, 3313, 3364, 3363
3249, 3313, 3314, 3365, 3364
3250, 3314, 3315, 3366, 3365
3251, 3316, 3317, 3368, 3367
3252, 3317, 3318, 3369, 3368
3253, 3318, 3319, 3370, 3369
3254, 3319, 3320, 3371, 3370
3255, 3320, 3321, 3372, 3371
3256, 3321, 3322, 3373, 3372
3257, 3322, 3323, 3374, 3373
3258, 3323, 3324, 3375, 3374
3259, 3324, 3325, 3376, 3375
3260, 3325, 3326, 3377, 3376
3261, 3326, 3327, 3378, 3377
3262, 3327, 3328, 3379, 3378
3263, 3328, 3329, 3380, 3379
3264, 3329, 3330, 3381, 3380
3265, 3330, 3331, 3382, 3381
3266, 3331, 3332, 3383, 3382
3267, 3332, 3333, 3384, 3383
3268, 3333, 3334, 3385, 3384
3269, 3334, 3335, 3386, 3385
3270, 3335, 3336, 3387, 3386
3271, 3336, 3337, 3388, 3387
3272, 3337, 3338, 3389, 3388
3273, 3338, 3339, 3390, 3389
3274, 3339, 3340, 3391, 3390
3275, 3340, 3341, 3392, 3391
3276, 3341, 3342, 3393, 3392
3277, 3342, 3343, 3394, 3393
3278, 3343, 3344, 3395, 3394
3279, 3344, 3345, 3396, 3395
3280, 3345, 3346, 3397, 3396
3281, 3346, 3347, 3398, 3397
3282, 3347, 3348, 3399, 3398
3283, 3348, 3349, 3400, 3399
3284, 3349, 3350, 3401, 3400
3285, 3350, 3351, 3402, 3401
3286, 3351, 3352, 3403, 3402
3287, 3352, 3353, 3404, 3403
3288, 3353, 3354, 3405, 3404
3289, 3354, 3355, 3406, 3405
3290, 3355, 3356, 3407, 3406
3291, 3356, 3357, 3408, 3407
3292, 3357, 3358, 3409, 3408
3293, 3358, 3359, 3410, 3409
3294, 3359, 3360, 3411, 3410
3295, 3360, 3361, 3412, 3411
3296, 3361, 3362, 3413, 3412
3297, 3362, 3363, 3414, 3413
3298, 3363, 3364, 3415, 3414
3299, 3364, 3365, 3416, 3415
3300, 3365, 3366, 3417, 3416
3301, 3367, 3368, 3419, 3418
3302, 3368, 3369, 3420, 3419
3303, 3369, 3370, 3421, 3420
3304, 3370, 3371, 3422, 3421
3305, 3371, 3372, 3423, 3422
3306, 3372, 3373, 3424, 3423
3307, 3373, 3374, 3425, 3424
3308, 3374, 3375, 3426, 3425
3309, 3375, 3376, 3427, 3426
3310, 3376, 3377, 3428, 3427
3311, 3377, 3378, 3429, 3428
3312, 3378, 3379, 3430, 3429
3313, 3379, 3380, 3431, 3430
3314, 3380, 3381, 3432, 3431
3315, 3381, 3382, 3433, 3432
3316, 3382, 3383, 3434, 3433
3317, 3383, 3384, 3435, 3434
3318, 3384, 3385, 3436, 3435
3319, 3385, 3386, 3437, 3436
3320, 3386, 3387, 3438, 3437
3321, 3387, 3388, 3439, 3438
3322, 3388, 3389, 3440, 3439
3323, 3389, 3390, 3441, 3440
3324, 3390, 3391, 3442, 3441
3325, 3391, 3392, 3443, 3442
3326, 3392, 3393, 3444, 3443
3327, 3393, 3394, 3445, 3444
3328, 3394, 3395, 3446, 3445
3329, 3395, 3396, 3447, 3446
3330, 3396, 3397, 3448, 3447
3331, 3397, 3398, 3449, 3448
3332, 3398, 3399, 3450, 3449
3333, 3399, 3400, 3451, 3450
3334, 3400, 3401, 3452, 3451
3335, 3401, 3402, 3453, 3452
3336, 3402, 3403, 3454, 3453
3337, 3403, 3404, 3455, 3454
3338, 3404, 3405, 3456, 3455
3339, 3405, 3406, 3457, 3456
3340, 3406, 3407, 3458, 3457
3341, 3407, 3408, 3459, 3458
3342, 3408, 3409, 3460, 3459
3343, 3409, 3410, 3461, 3460
3344, 3410, 3411, 3462, 3461
3345, 3411, 3412, 3463, 3462
3346, 3412, 3413, 3464, 3463
3347, 3413, 3414, 3465, 3464
3348, 3414, 3415, 3466, 3465
3349, 3415, 3416, 3467, 3466
3350, 3416, 3417, 3468, 3467
3351, 3418, 3419, 3470, 3469
3352, 3419, 3420, 3471, 3470
3353, 3420, 3421, 3472, 3471
3354, 3421, 3422, 3473, 3472
3355, 3422, 3423, 3474, 3473
3356, 3423, 3424, 3475, 3474
3357, 3424, 3425, 3476, 3475
3358, 3425, 3426, 3477, 3476
3359, 3426, 3427, 3478, 3477
3360, 3427, 3428, 3479, 3478
3361, 3428, 3429, 3480, 3479
3362, 3429, 3430, 3481, 3480
3363, 3430, 3431, 3482, 3481
3364, 3431, 3432, 3483, 3482
3365, 3432, 3433, 3484, 3483
3366, 3433, 3434, 3485, 3484
3367, 3434, 3435, 3486, 3485
3368, 3435, 3436, 3487, 3486
3369, 3436, 3437, 3488, 3487
3370, 3437, 3438, 3489, 3488
3371, 3438, 3439, 3490, 3489
3372, 3439, 3440, 3491, 3490
3373, 3440, 3441, 3492, 3491
3374, 3441, 3442, 3493, 3492
3375, 3442, 3443, 3494, 3493
3376, 3443, 3444, 3495, 3494
3377, 3444, 3445, 3496, 3495
3378, 3445, 3446, 3497, 3496
3379, 3446, 3447, 3498, 3497
3380, 3447, 3448, 3499, 3498
3381, 3448, 3449, 3500, 3499
3382, 3449, 3450, 3501, 3500
3383, 3450, 3451, 3502, 3501
3384, 3451, 3452, 3503, 3502
3385, 3452, 3453, 3504, 3503
3386, 3453, 3454, 3505, 3504
3387, 3454, 3455, 3506, 3505
3388, 3455, 3456, 3507, 3506
3389, 3456, 3457, 3508, 3507
3390, 3457, 3458, 3509, 3508
3391, 3458, 3459, 3510, 3509
3392, 3459, 3460, 3511, 3510
3393, 3460, 3461, 3512, 3511
3394, 3461, 3462, 3513, 3512
3395, 3462, 3463, 3514, 3513
3396, 3463, 3464, 3515, 3514
3397, 3464, 3465, 3516, 3515
3398, 3465, 3466, 3517, 3516
3399, 3466, 3467, 3518, 3517
3400, 3467, 3468, 3519, 3518
3401, 3469, 3470, 3521, 3520
3402, 3470, 3471, 3522, 3521
3403, 3471, 3472, 3523, 3522
3404, 3472, 3473, 3524, 3523
3405, 3473, 3474, 3525, 3524
3406, 3474, 3475, 3526, 3525
3407, 3475, 3476, 3527, 3526
3408, 3476, 3477, 3528, 3527
3409, 3477, 3478, 3529, 3528
3410, 3478, 3479, 3530, 3529
3411, 3479, 3480, 3531, 3530
3412, 3480, 3481, 3532, 3531
3413, 3481, 3482, 3533, 3532
3414, 3482, 3483, 3534, 3533
3415, 3483, 3484, 3535, 3534
3416, 3484, 3485, 3536, 3535
3417, 3485, 3486, 3537, 3536
3418, 3486, 3487, 3538, 3537
3419, 3487, 3488, 3539, 3538
3420, 3488, 3489, 3540, 3539
3421, 3489, 3490, 3541, 3540
3422, 3490, 3491, 3542, 3541
3423, 3491, 3492, 3543, 3542
3424, 3492, 3493, 3544, 3543
3425, 3493, 3494, 3545, 3544
3426, 3494, 3495, 3546, 3545
3427, 3495, 3496, 3547, 3546
3428, 3496, 3497, 3548, 3547
3429, 3497, 3498, 3549, 3548
3430, 3498, 3499, 3550, 3549
3431, 3499, 3500, 3551, 3550
3432, 3500, 3501, 3552, 3551
3433, 3501, 3502, 3553, 3552
3434, 3502, 3503, 3554, 3553
3435, 3503, 3504, 3555, 3554
3436, 3504, 3505, 3556, 3555
3437, 3505, 3506, 3557, 3556
3438, 3506, 3507, 3558, 3557
3439, 3507, 3508, 3559, 3558
3440, 3508, 3509, 3560, 3559
3441, 3509, 3510, 3561, 3560
3442, 3510, 3511, 3562, 3561
3443, 3511, 3512, 3563, 3562
3444, 3512, 3513, 3564, 3563
3445, 3513, 3514, 3565, 3564
3446, 3514, 3515, 3566, 3565
3447, 3515, 3516, 3567, 3566
3448, 3516, 3517, 3568, 3567
3449, 3517, 3518, 3569, 3568
3450, 3518, 3519, 3570, 3569
3451, 3520, 3521, 3572, 3571
3452, 3521, 3522, 3573, 3572
3453, 3522, 3523, 3574, 3573
3454, 3523, 3524, 3575, 3574
3455, 3524, 3525, 3576, 3575
3456, 3525, 3526, 3577, 3576
3457, 3526, 3527, 3578, 3577
3458, 3527, 3528, 3579, 3578
3459, 3528, 3529, 3580, 3579
3460, 3529, 3530, 3581, 3580
3461, 3530, 3531, 3582, 3581
3462, 3531, 3532, 3583, 3582
3463, 3532, 3533, 3584, 3583
3464, 3533, 3534, 3585, 3584
3465, 3534, 3535, 3586, 3585
3466, 3535, 3536, 3587, 3586
3467, 3536, 3537, 3588, 3587
3468, 3537, 3538, 3589, 3588
3469, 3538, 3539, 3590, 3589
3470, 3539, 3540, 3591, 3590
3471, 3540, 3541, 3592, 3591
3472, 3541, 3542, 3593, 3592
3473, 3542, 3543, 3594, 3593
3474, 3543, 3544, 3595, 3594
3475, 3544, 3545, 3596, 3595
3476, 3545, 3546, 3597, 3596
3477, 3546, 3547, 3598, 3597
3478, 3547, 3548, 3599, 3598
3479, 3548, 3549, 3600, 3599
3480, 3549, 3550, 3601, 3600
3481, 3550, 3551, 3602, 3601
3482, 3551, 3552, 3603, 3602
3483, 3552, 3553, 3604, 3603
3484, 3553, 3554, 3605, 3604
3485, 3554, 3555, 3606, 3605
3486, 3555, 3556, 3607, 3606
3487, 3556, 3557, 3608, 3607
3488, 3557, 3558, 3609, 3608
3489, 3558, 3559, 3610, 3609
3490, 3559, 3560, 3611, 3610
3491, 3560, 3561, 3612, 3611
3492, 3561, 3562, 3613, 3612
3493, 3562, 3563, 3614, 3613
3494, 3563, 3564, 3615, 3614
3495, 3564, 3565, 3616, 3615
3496, 3565, 3566, 3617, 3616
3497, 3566, 3567, 3618, 3617
3498, 3567, 3568, 3619, 3618
3499, 3568, 3569, 3620, 3619
3500, 3569, 3570, 3621, 3620
3501, 3571, 3572, 3623, 3622
3502, 3572, 3573, 3624, 3623
3503, 3573, 3574, 3625, 3624
3504, 3574, 3575, 3626, 3625
3505, 3575, 3576, 3627, 3626
3506, 3576, 3577, 3628, 3627
3507, 3577, 3578, 3629, 3628
3508, 3578, 3579, 3630, 3629
3509, 3579, 3580, 3631, 3630
3510, 3580, 3581, 3632, 3631
3511, 3581, 3582, 3633, 3632
3512, 3582, 3583, 3634, 3633
3513, 3583, 3584, 3635, 3634
3514, 3584, 3585, 3636, 3635
3515, 3585, 3586, 3637, 3636
3516, 3586, 3587, 3638, 3637
3517, 3587, 3588, 3639, 3638
3518, 3588, 3589, 3640, 3639
3519, 3589, 3590, 3641, 3640
3520, 3590, 3591, 3642, 3641
3521, 3591, 3592, 3643, 3642
3522, 3592, 3593, 3644, 3643
3523, 3593, 3594, 3645, 3644
3524, 3594, 3595, 3646, 3645
3525, 3595, 3596, 3647, 3646
3526, 3596, 3597, 3648, 3647
3527, 3597, 3598, 3649, 3648
3528, 3598, 3599, 3650, 3649
3529, 3599, 3600, 3651, 3650
3530, 3600, 3601, 3652, 3651
3531, 3601, 3602, 3653, 3652
3532, 3602, 3603, 3654, 3653
3533, 3603, 3604, 3655, 3654
3534, 3604, 3605, 3656, 3655
3535, 3605, 3606, 3657, 3656
3536, 3606, 3607, 3658, 3657
3537, 3607, 3608, 3659, 3658
3538, 3608, 3609, 3660, 3659
3539, 3609, 3610, 3661, 3660
3540, 3610, 3611, 3662, 3661
3541, 3611, 3612, 3663, 3662
3542, 3612, 3613, 3664, 3663
3543, 3613, 3614, 3665, 3664
3544, 3614, 3615, 3666, 3665
3545, 3615, 3616, 3667, 3666
3546, 3616, 3617, 3668, 3667
3547, 3617, 3618, 3669, 3668
3548, 3618, 3619, 3670, 3669
3549, 3619, 3620, 3671, 3670
3550, 3620, 3621, 3672, 3671
3551, 3622, 3623, 3674, 3673
3552, 3623, 3624, 3675, 3674
3553, 3624, 3625, 3676, 3675
3554, 3625, 3626, 3677, 3676
3555, 3626, 3627, 3678, 3677
3556, 3627, 3628, 3679, 3678
3557, 3628, 3629, 3680, 3679
3558, 3629, 3630, 3681, 3680
3559, 3630, 3631, 3682, 3681
3560, 3631, 3632, 3683, 3682
3561, 3632, 3633, 3684, 3683
3562, 3633, 3634, 3685, 3684
3563, 3634, 3635, 3686, 3685
3564, 3635, 3636, 3687, 3686
3565, 3636, 3637, 3688, 3687
3566, 3637, 3638, 3689, 3688
3567, 3638, 3639, 3690, 3689
3568, 3639, 3640, 3691, 3690
3569, 3640, 3641, 3692, 3691
3570, 3641, 3642, 3693, 3692
3571, 3642, 3643, 3694, 3693
3572, 3643, 3644, 3695, 3694
3573, 3644, 3645, 3696, 3695
3574, 3645, 3646, 3697, 3696
3575, 3646, 3647, 3698, 3697
3576, 3647, 3648, 3699, 3698
3577, 3648, 3649, 3700, 3699
3578, 3649, 3650, 3701, 3700
3579, 3650, 3651, 3702, 3701
3580, 3651, 3652, 3703, 3702
3581, 3652, 3653, 3704, 3703
3582, 3653, 3654, 3705, 3704
3583, 3654, 3655, 3706, 3705
3584, 3655, 3656, 3707, 3706
3585, 3656, 3657, 3708, 3707
3586, 3657, 3658, 3709, 3708
3587, 3658, 3659, 3710, 3709
3588, 3659, 3660, 3711, 3710
3589, 3660, 3661, 3712, 3711
3590, 3661, 3662, 3713, 3712
3591, 3662, 3663, 3714, 3713
3592, 3663, 3664, 3715, 3714
3593, 3664, 3665, 3716, 3715
3594, 3665, 3666, 3717, 3716
3595, 3666, 3667, 3718, 3717
3596, 3667, 3668, 3719, 3718
3597, 3668, 3669, 3720, 3719
3598, 3669, 3670, 3721, 3720
3599, 3670, 3671, 3722, 3721
3600, 3671, 3672, 3723, 3722
3601, 3673, 3674, 3725, 3724
3602, 3674, 3675, 3726, 3725
3603, 3675, 3676, 3727, 3726
3604, 3676, 3677, 3728, 3727
3605, 3677, 3678, 3729, 3728
3606, 3678, 3679, 3730, 3729
3607, 3679, 3680, 3731, 3730
3608, 3680, 3681, 3732, 3731
3609, 3681, 3682, 3733, 3732
3610, 3682, 3683, 3734, 3733
3611, 3683, 3684, 3735, 3734
3612, 3684, 3685, 3736, 3735
3613, 3685, 3686, 3737, 3736
3614, 3686, 3687, 3738, 3737
3615, 3687, 3688, 3739, 3738
3616, 3688, 3689, 3740, 3739
3617, 3689, 3690, 3741, 3740
3618, 3690, 3691, 3742, 3741
3619, 3691, 3692, 3743, 3742
3620, 3692, 3693, 3744, 3743
3621, 3693, 3694, 3745, 3744
3622, 3694, 3695, 3746, 3745
3623, 3695, 3696, 3747, 3746
3624, 3696, 3697, 3748, 3747
3625, 3697, 3698, 3749, 3748
3626, 3698, 3699, 3750, 3749
3627, 3699, 3700, 3751, 3750
3628, 3700, 3701, 3752, 3751
3629, 3701, 3702, 3753, 3752
3630, 3702, 3703, 3754, 3753
3631, 3703, 3704, 3755, 3754
3632, 3704, 3705, 3756, 3755
3633, 3705, 3706, 3757, 3756
3634, 3706, 3707, 3758, 3757
3635, 3707, 3708, 3759, 3758
3636, 3708, 3709, 3760, 3759
3637, 3709, 3710, 3761, 3760
3638, 3710, 3711, 3762, 3761
3639, 3711, 3712, 3763, 3762
3640, 3712, 3713, 3764, 3763
3641, 3713, 3714, 3765, 3764
3642, 3714, 3715, 3766, 3765
3643, 3715, 3716, 3767, 3766
3644, 3716, 3717, 3768, 3767
3645, 3717, 3718, 3769, 3768
3646, 3718, 3719, 3770, 3769
3647, 3719, 3720, 3771, 3770
3648, 3720, 3721, 3772, 3771
3649, 3721, 3722, 3773, 3772
3650, 3722, 3723, 3774, 3773
3651, 3724, 3725, 3776, 3775
3652, 3725, 3726, 3777, 3776
3653, 3726, 3727, 3778, 3777
3654, 3727, 3728, 3779, 3778
3655, 3728, 3729, 3780, 3779
3656, 3729, 3730, 3781, 3780
3657, 3730, 3731, 3782, 3781
3658, 3731, 3732, 3783, 3782
3659, 3732, 3733, 3784, 3783
3660, 3733, 3734, 3785, 3784
3661, 3734, 3735, 3786, 3785
3662, 3735, 3736, 3787, 3786
3663, 3736, 3737, 3788, 3787
3664, 3737, 3738, 3789, 3788
3665, 3738, 3739, 3790, 3789
3666, 3739, 3740, 3791, 3790
3667, 3740, 3741, 3792, 3791
3668, 3741, 3742, 3793, 3792
3669, 3742, 3743, 3794, 3793
3670, 3743, 3744, 3795, 3794
3671, 3744, 3745, 3796, 3795
3672, 3745, 3746, 3797, 3796
3673, 3746, 3747, 3798, 3797
3674, 3747, 3748, 3799, 3798
3675, 3748, 3749, 3800, 3799
3676, 3749, 3750, 3801, 3800
3677, 3750, 3751, 3802, 3801
3678, 3751, 3752, 3803, 3802
3679, 3752, 3753, 3804, 3803
3680, 3753, 3754, 3805, 3804
3681, 3754, 3755, 3806, 3805
3682, 3755, 3756, 3807, 3806
3683, 3756, 3757, 3808, 3807
3684, 3757, 3758, 3809, 3808
3685, 3758, 3759, 3810, 3809
3686, 3759, 3760, 3811, 3810
3687, 3760, 3761, 3812, 3811
3688, 3761, 3762, 3813, 3812
3689, 3762, 3763, 3814, 3813
3690, 3763, 3764, 3815, 3814
3691, 3764, 3765, 3816, 3815
3692, 3765, 3766, 3817, 3816
3693, 3766, 3767, 3818, 3817
3694, 3767, 3768, 3819, 3818
3695, 3768, 3769, 3820, 3819
3696, 3769, 3770, 3821, 3820
3697, 3770, 3771, 3822, 3821
3698, 3771, 3772, 3823, 3822
3699, 3772, 3773, 3824, 3823
3700, 3773, 3774, 3825, 3824
3701, 3775, 3776, 3827, 3826
3702, 3776, 3777, 3828, 3827
3703, 3777, 3778, 3829, 3828
3704, 3778, 3779, 3830, 3829
3705, 3779, 3780, 3831, 3830
3706, 3780, 3781, 3832, 3831
3707, 3781, 3782, 3833, 3832
3708, 3782, 3783, 3834, 3833
3709, 3783, 3784, 3835, 3834
3710, 3784, 3785, 3836, 3835
3711, 3785, 3786, 3837, 3836
3712, 3786, 3787, 3838, 3837
3713, 3787, 3788, 3839, 3838
3714, 3788, 3789, 3840, 3839
3715, 3789, 3790, 3841, 3840
3716, 3790, 3791, 3842, 3841
3717, 3791, 3792, 3843, 3842
3718, 3792, 3793, 3844, 3843
3719, 3793, 3794, 3845, 3844
3720, 3794, 3795, 3846, 3845
3721, 3795, 3796, 3847, 3846
3722, 3796, 3797, 3848, 3847
3723, 3797, 3798, 3849, 3848
3724, 3798, 3799, 3850, 3849
3725, 3799, 3800, 3851, 3850
3726, 3800, 3801, 3852, 3851
3727, 3801, 3802, 3853, 3852
3728, 3802, 3803, 3854, 3853
3729, 3803, 3804, 3855, 3854
3730, 3804, 3805, 3856, 3855
3731, 3805, 3806, 3857, 3856
3732, 3806, 3807, 3858, 3857
3733, 3807, 3808, 3859, 3858
3734, 3808, 3809, 3860, 3859
3735, 3809, 3810, 3861, 3860
3736, 3810, 3811, 3862, 3861
3737, 3811, 3812, 3863, 3862
3738, 3812, 3813, 3864, 3863
3739, 3813, 3814, 3865, 3864
3740, 3814, 3815, 3866, 3865
3741, 3815, 3816, 3867, 3866
3742, 3816, 3817, 3868, 3867
3743, 3817, 3818, 3869, 3868
3744, 3818, 3819, 3870, 3869
3745, 3819, 3820, 3871, 3870
3746, 3820, 3821, 3872, 3871
3747, 3821, 3822, 3873, 3872
3748, 3822, 3823, 3874, 3873
3749, 3823, 3824, 3875, 3874
3750, 3824, 3825, 3876, 3875
3751, 3826, 3827, 3878, 3877
3752, 3827, 3828, 3879, 3878
3753, 3828, 3829, 3880, 3879
3754, 3829, 3830, 3881, 3880
3755, 3830, 3831, 3882, 3881
3756, 3831, 3832, 3883, 3882
3757, 3832, 3833, 3884, 3883
3758, 3833, 3834, 3885, 3884
3759, 3834, 3835, 3886, 3885
3760, 3835, 3836, 3887, 3886
3761, 3836, 3837, 3888, 3887
3762, 3837, 3838, 3889, 3888
3763, 3838, 3839, 3890, 3889
3764, 3839, 3840, 3891, 3890
3765, 3840, 3841, 3892, 3891
3766, 3841, 3842, 3893, 3892
3767, 3842, 3843, 3894, 3893
3768, 3843, 3844, 3895, 3894
3769, 3844, 3845, 3896, 3895
3770, 3845, 3846, 3897, 3896
3771, 3846, 3847, 3898, 3897
3772, 3847, 3848, 3899, 3898
3773, 3848, 3849, 3900, 3899
3774, 3849, 3850, 3901, 3900
3775, 3850, 3851, 3902, 3901
3776, 3851, 3852, 3903, 3902
3777, 3852, 3853, 3904, 3903
3778, 3853, 3854, 3905, 3904
3779, 3854, 3855, 3906, 3905
3780, 3855, 3856, 3907, 3906
3781, 3856, 3857, 3908, 3907
3782, 3857, 3858, 3909, 3908
3783, 3858, 3859, 3910, 3909
3784, 3859, 3860, 3911, 3910
3785, 3860, 3861, 3912, 3911
3786, 3861, 3862, 3913, 3912
3787, 3862, 3863, 3914, 3913
3788, 3863, 3864, 3915, 3914
3789, 3864, 3865, 3916, 3915
3790, 3865, 3866, 3917, 3916
3791, 3866, 3867, 3918, 3917
3792, 3867, 3868, 3919, 3918
3793, 3868, 3869, 3920, 3919
3794, 3869, 3870, 3921, 3920
3795, 3870, 3871, 3922, 3921
3796, 3871, 3872, 3923, 3922
3797, 3872, 3873, 3924, 3923
3798, 3873, 3874, 3925, 3924
3799, 3874, 3875, 3926, 3925
3800, 3875, 3876, 3927, 3926
3801, 3877, 3878, 3929, 3928
3802, 3878, 3879, 3930, 3929
3803, 3879, 3880, 3931, 3930
3804, 3880, 3881, 3932, 3931
3805, 3881, 3882, 3933, 3932
3806, 3882, 3883, 3934, 3933
3807, 3883, 3884, 3935, 3934
3808, 3884, 3885, 3936, 3935
3809, 3885, 3886, 3937, 3936
3810, 3886, 3887, 3938, 3937
3811, 3887, 3888, 3939, 3938
3812, 3888, 3889, 3940, 3939
3813, 3889, 3890, 3941, 3940
3814, 3890, 3891, 3942, 3941
3815, 3891, 3892, 3943, 3942
3816, 3892, 3893, 3944, 3943
3817, 3893, 3894, 3945, 3944
3818, 3894, 3895, 3946, 3945
3819, 3895, 3896, 3947, 3946
3820, 3896, 3897, 3948, 3947
3821, 3897, 3898, 3949, 3948
3822, 3898, 3899, 3950, 3949
3823, 3899, 3900, 3951, 3950
3824, 3900, 3901, 3952, 3951
3825, 3901, 3902, 3953, 3952
3826, 3902, 3903, 3954, 3953
3827, 3903, 3904, 3955, 3954
3828, 3904, 3905, 3956, 3955
3829, 3905, 3906, 3957, 3956
3830, 3906, 3907, 3958, 3957
3831, 3907, 3908, 3959, 3958
3832, 3908, 3909, 3960, 3959
3833, 3909, 3910, 3961, 3960
3834, 3910, 3911, 3962, 3961
3835, 3911, 3912, 3963, 3962
3836, 3912, 3913, 3964, 3963
3837, 3913, 3914, 3965, 3964
3838, 3914, 3915, 3966, 3965
3839, 3915, 3916, 3967, 3966
3840, 3916, 3917, 3968, 3967
3841, 3917, 3918, 3969, 3968
3842, 3918, 3919, 3970, 3969
3843, 3919, 3920, 3971, 3970
3844, 3920, 3921, 3972, 3971
3845, 3921, 3922, 3973, 3972
3846, 3922, 3923, 3974, 3973
3847, 3923, 3924, 3975, 3974
3848, 3924, 3925, 3976, 3975
3849, 3925, 3926, 3977, 3976
3850, 3926, 3927, 3978, 3977
3851, 3928, 3929, 3980, 3979
3852, 3929, 3930, 3981, 3980
3853, 3930, 3931, 3982, 3981
3854, 3931, 3932, 3983, 3982
3855, 3932, 3933, 3984, 3983
3856, 3933, 3934, 3985, 3984
3857, 3934, 3935, 3986, 3985
3858, 3935, 3936, 3987, 3986
3859, 3936, 3937, 3988, 3987
3860, 3937, 3938, 3989, 3988
3861, 3938, 3939, 3990, 3989
3862, 3939, 3940, 3991, 3990
3863, 3940, 3941, 3992, 3991
3864, 3941, 3942, 3993, 3992
3865, 3942, 3943, 3994, 3993
3866, 3943, 3944, 3995, 3994
3867, 3944, 3945, 3996, 3995
3868, 3945, 3946, 3997, 3996
3869, 3946, 3947, 3998, 3997
3870, 3947, 3948, 3999, 3998
3871, 3948, 3949, 4000, 3999
3872, 3949, 3950, 4001, 4000
3873, 3950, 3951, 4002, 4001
3874, 3951, 3952, 4003, 4002
3875, 3952, 3953, 4004, 4003
3876, 3953, 3954, 4005, 4004
3877, 3954, 3955, 4006, 4005
3878, 3955, 3956, 4007, 4006
3879, 3956, 3957, 4008, 4007
3880, 3957, 3958, 4009, 4008
3881, 3958, 3959, 4010, 4009
3882, 3959, 3960, 4011, 4010
3883, 3960, 3961, 4012, 4011
3884, 3961, 3962, 4013, 4012
3885, 3962, 3963, 4014, 4013
3886, 3963, 3964, 4015, 4014
3887, 3964, 3965, 4016, 4015
3888, 3965, 3966, 4017, 4016
3889, 3966, 3967, 4018, 4017
3890, 3967, 3968, 4019, 4018
3891, 3968, 3969, 4020, 4019
3892, 3969, 3970, 4021, 4020
3893, 3970, 3971, 4022, 4021
3894, 3971, 3972, 4023, 4022
3895, 3972, 3973, 4024, 4023
3896, 3973, 3974, 4025, 4024
3897, 3974, 3975, 4026, 4025
3898, 3975, 3976, 4027, 4026
3899, 3976, 3977, 4028, 4027
3900, 3977, 3978, 4029, 4028
3901, 3979, 3980, 4031, 4030
3902, 3980, 3981, 4032, 4031
3903, 3981, 3982, 4033, 4032
3904, 3982, 3983, 4034, 4033
3905, 3983, 3984, 4035, 4034
3906, 3984, 3985, 4036, 4035
3907, 3985, 3986, 4037, 4036
3908, 3986, 3987, 4038, 4037
3909, 3987, 3988, 4039, 4038
3910, 3988, 3989, 4040, 4039
3911, 3989, 3990, 4041, 4040
3912, 3990, 3991, 4042, 4041
3913, 3991, 3992, 4043, 4042
3914, 3992, 3993, 4044, 4043
3915, 3993, 3994, 4045, 4044
3916, 3994, 3995, 4046, 4045
3917, 3995, 3996, 4047, 4046
3918, 3996, 3997, 4048, 4047
3919, 3997, 3998, 4049, 4048
3920, 3998, 3999, 4050, 4049
3921, 3999, 4000, 4051, 4050
3922, 4000, 4001, 4052, 4051
3923, 4001, 4002, 4053, 4052
3924, 4002, 4003, 4054, 4053
3925, 4003, 4004, 4055, 4054
3926, 4004, 4005, 4056, 4055
3927, 4005, 4006, 4057, 4056
3928, 4006, 4007, 4058, 4057
3929, 4007, 4008, 4059, 4058
3930, 4008, 4009, 4060, 4059
3931, 4009, 4010, 4061, 4060
3932, 4010, 4011, 4062, 4061
3933, 4011, 4012, 4063, 4062
3934, 4012, 4013, 4064, 4063
3935, 4013, 4014, 4065, 4064
3936, 4014, 4015, 4066, 4065
3937, 4015, 4016, 4067, 4066
3938, 4016, 4017, 4068, 4067
3939, 4017, 4018, 4069, 4068
3940, 4018, 4019, 4070, 4069
3941, 4019, 4020, 4071, 4070
3942, 4020, 4021, 4072, 4071
3943, 4021, 4022, 4073, 4072
3944, 4022, 4023, 4074, 4073
3945, 4023, 4024, 4075, 4074
3946, 4024, 4025, 4076, 4075
3947, 4025, 4026, 4077, 4076
3948, 4026, 4027, 4078, 4077
3949, 4027, 4028, 4079, 4078
3950, 4028, 4029, 4080, 4079
3951, 4030, 4031, 4082, 4081
3952, 4031, 4032, 4083, 4082
3953, 4032, 4033, 4084, 4083
3954, 4033, 4034, 4085, 4084
3955, 4034, 4035, 4086, 4085
3956, 4035, 4036, 4087, 4086
3957, 4036, 4037, 4088, 4087
3958, 4037, 4038, 4089, 4088
3959, 4038, 4039, 4090, 4089
3960, 4039, 4040, 4091, 4090
3961, 4040, 4041, 4092, 4091
3962, 4041, 4042, 4093, 4092
3963, 4042, 4043, 4094, 4093
3964, 4043, 4044, 4095, 4094
3965, 4044, 4045, 4096, 4095
3966, 4045, 4046, 4097, 4096
3967, 4046, 4047, 4098, 4097
3968, 4047, 4048, 4099, 4098
3969, 4048, 4049, 4100, 4099
3970, 4049, 4050, 4101, 4100
3971, 4050, 4051, 4102, 4101
3972, 4051, 4052, 4103, 4102
3973, 4052, 4053, 4104, 4103
3974, 4053, 4054, 4105, 4104
3975, 4054, 4055, 4106, 4105
3976, 4055, 4056, 4107, 4106
3977, 4056, 4057, 4108, 4107
3978, 4057, 4058, 4109, 4108
3979, 4058, 4059, 4110, 4109
3980, 4059, 4060, 4111, 4110
3981, 4060, 4061, 4112, 4111
3982, 4061, 4062, 4113, 4112
3983, 4062, 4063, 4114, 4113
3984, 4063, 4064, 4115, 4114
3985, 4064, 4065, 4116, 4115
3986, 4065, 4066, 4117, 4116
3987, 4066, 4067, 4118, 4117
3988, 4067, 4068, 4119, 4118
3989, 4068, 4069, 4120, 4119
3990, 4069, 4070, 4121, 4120
3991, 4070, 4071, 4122, 4121
3992, 4071, 4072, 4123, 4122
3993, 4072, 4073, 4124, 4123
3994, 4073, 4074, 4125, 4124
3995, 4074, 4075, 4126, 4125
3996, 4075, 4076, 4127, 4126
3997, 4076, 4077, 4128, 4127
3998, 4077, 4078, 4129, 4128
3999, 4078, 4079, 4130, 4129
4000, 4079, 4080, 4131, 4130
4001, 4081, 4082, 4133, 4132
4002, 4082, 4083, 4134, 4133
4003, 4083, 4084, 4135, 4134
4004, 4084, 4085, 4136, 4135
4005, 4085, 4086, 4137, 4136
4006, 4086, 4087, 4138, 4137
4007, 4087, 4088, 4139, 4138
4008, 4088, 4089, 4140, 4139
4009, 4089, 4090, 4141, 4140
4010, 4090, 4091, 4142, 4141
4011, 4091, 4092, 4143, 4142
4012, 4092, 4093, 4144, 4143
4013, 4093, 4094, 4145, 4144
4014, 4094, 4095, 4146, 4145
4015, 4095, 4096, 4147, 4146
4016, 4096, 4097, 4148, 4147
4017, 4097, 4098, 4149, 4148
4018, 4098, 4099, 4150, 4149
4019, 4099, 4100, 4151, 4150
4020, 4100, 4101, 4152, 4151
4021, 4101, 4102, 4153, 4152
4022, 4102, 4103, 4154, 4153
4023, 4103, 4104, 4155, 4154
4024, 4104, 4105, 4156, 4155
4025, 4105, 4106, 4157, 4156
4026, 4106, 4107, 4158, 4157
4027, 4107, 4108, 4159, 4158
4028, 4108, 4109, 4160, 4159
4029, 4109, 4110, 4161, 4160
4030, 4110, 4111, 4162, 4161
4031, 4111, 4112, 4163, 4162
4032, 4112, 4113, 4164, 4163
4033, 4113, 4114, 4165, 4164
4034, 4114, 4115, 4166, 4165
4035, 4115, 4116, 4167, 4166
4036, 4116, 4117, 4168, 4167
4037, 4117, 4118, 4169, 4168
4038, 4118, 4119, 4170, 4169
4039, 4119, 4120, 4171, 4170
4040, 4120, 4121, 4172, 4171
4041, 4121, 4122, 4173, 4172
4042, 4122, 4123, 4174, 4173
4043, 4123, 4124, 4175, 4174
4044, 4124, 4125, 4176, 4175
4045, 4125, 4126, 4177, 4176
4046, 4126, 4127, 4178, 4177
4047, 4127, 4128, 4179, 4178
4048, 4128, 4129, 4180, 4179
4049, 4129, 4130, 4181, 4180
4050, 4130, 4131, 4182, 4181
4051, 4132, 4133, 4184, 4183
4052, 4133, 4134, 4185, 4184
4053, 4134, 4135, 4186, 4185
4054, 4135, 4136, 4187, 4186
4055, 4136, 4137, 4188, 4187
4056, 4137, 4138, 4189, 4188
4057, 4138, 4139, 4190, 4189
4058, 4139, 4140, 4191, 4190
4059, 4140, 4141, 4192, 4191
4060, 4141, 4142, 4193, 4192
4061, 4142, 4143, 4194, 4193
4062, 4143, 4144, 4195, 4194
4063, 4144, 4145, 4196, 4195
4064, 4145, 4146, 4197, 4196
4065, 4146, 4147, 4198, 4197
4066, 4147, 4148, 4199, 4198
4067, 4148, 4149, 4200, 4199
4068, 4149, 4150, 4201, 4200
4069, 4150, 4151, 4202, 4201
4070, 4151, 4152, 4203, 4202
4071, 4152, 4153, 4204, 4203
4072, 4153, 4154, 4205, 4204
4073, 4154, 4155, 4206, 4205
4074, 4155, 4156, 4207, 4206
4075, 4156, 4157, 4208, 4207
4076, 4157, 4158, 4209, 4208
4077, 4158, 4159, 4210, 4209
4078, 4159, 4160, 4211, 4210
4079, 4160, 4161, 4212, 4211
4080, 4161, 4162, 4213, 4212
4081, 4162, 4163, 4214, 4213
4082, 4163, 4164, 4215, 4214
4083, 4164, 4165, 4216, 4215
4084, 4165, 4166, 4217, 4216
4085, 4166, 4167, 4218, 4217
4086, 4167, 4168, 4219, 4218
4087, 4168, 4169, 4220, 4219
4088, 4169, 4170, 4221, 4220
4089, 4170, 4171, 4222, 4221
4090, 4171, 4172, 4223, 4222
4091, 4172, 4173, 4224, 4223
4092, 4173, 4174, 4225, 4224
4093, 4174, 4175, 4226, 4225
4094, 4175, 4176, 4227, 4226
4095, 4176, 4177, 4228, 4227
4096, 4177, 4178, 4229, 4228
4097, 4178, 4179, 4230, 4229
4098, 4179, 4180, 4231, 4230
4099, 4180, 4181, 4232, 4231
4100, 4181, 4182, 4233, 4232
4101, 4183, 4184, 4235, 4234
4102, 4184, 4185, 4236, 4235
4103, 4185, 4186, 4237, 4236
4104, 4186, 4187, 4238, 4237
4105, 4187, 4188, 4239, 4238
4106, 4188, 4189, 4240, 4239
4107, 4189, 4190, 4241, 4240
4108, 4190, 4191, 4242, 4241
4109, 4191, 4192, 4243, 4242
4110, 4192, 4193, 4244, 4243
4111, 4193, 4194, 4245, 4244
4112, 4194, 4195, 4246, 4245
4113, 4195, 4196, 4247, 4246
4114, 4196, 4197, 4248, 4247
4115, 4197, 4198, 4249, 4248
4116, 4198, 4199, 4250, 4249
4117, 4199, 4200, 4251, 4250
4118, 4200, 4201, 4252, 4251
4119, 4201, 4202, 4253, 4252
4120, 4202, 4203, 4254, 4253
4121, 4203, 4204, 4255, 4254
4122, 4204, 4205, 4256, 4255
4123, 4205, 4206, 4257, 4256
4124, 4206, 4207, 4258, 4257
4125, 4207, 4208, 4259, 4258
4126, 4208, 4209, 4260, 4259
4127, 4209, 4210, 4261, 4260
4128, 4210, 4211, 4262, 4261
4129, 4211, 4212, 4263, 4262
4130, 4212, 4213, 4264, 4263
4131, 4213, 4214, 4265, 4264
4132, 4214, 4215, 4266, 4265
4133, 4215, 4216, 4267, 4266
4134, 4216, 4217, 4268, 4267
4135, 4217, 4218, 4269, 4268
4136, 4218, 4219, 4270, 4269
4137, 4219, 4220, 4271, 4270
4138, 4220, 4221, 4272, 4271
4139, 4221, 4222, 4273, 4272
4140, 4222, 4223, 4274, 4273
4141, 4223, 4224, 4275, 4274
4142, 4224, 4225, 4276, 4275
4143, 4225, 4226, 4277, 4276
4144, 4226, 4227, 4278, 4277
4145, 4227, 4228, 4279, 4278
4146, 4228, 4229, 4280, 4279
4147, 4229, 4230, 4281, 4280
4148, 4230, 4231, 4282, 4281
4149, 4231, 4232, 4283, 4282
4150, 4232, 4233, 4284, 4283
4151, 4234, 4235, 4286, 4285
4152, 4235, 4236, 4287, 4286
4153, 4236, 4237, 4288, 4287
4154, 4237, 4238, 4289, 4288
4155, 4238, 4239, 4290, 4289
4156, 4239, 4240, 4291, 4290
4157, 4240, 4241, 4292, 4291
4158, 4241, 4242, 4293, 4292
4159, 4242, 4243, 4294, 4293
4160, 4243, 4244, 4295, 4294
4161, 4244, 4245, 4296, 4295
4162, 4245, 4246, 4297, 4296
4163, 4246, 4247, 4298, 4297
4164, 4247, 4248, 4299, 4298
4165, 4248, 4249, 4300, 4299
4166, 4249, 4250, 4301, 4300
4167, 4250, 4251, 4302, 4301
4168, 4251, 4252, 4303, 4302
4169, 4252, 4253, 4304, 4303
4170, 4253, 4254, 4305, 4304
4171, 4254, 4255, 4306, 4305
4172, 4255, 4256, 4307, 4306
4173, 4256, 4257, 4308, 4307
4174, 4257, 4258, 4309, 4308
4175, 4258, 4259, 4310, 4309
4176, 4259, 4260, 4311, 4310
4177, 4260, 4261, 4312, 4311
4178, 4261, 4262, 4313, 4312
4179, 4262, 4263, 4314, 4313
4180, 4263, 4264, 4315, 4314
4181, 4264, 4265, 4316, 4315
4182, 4265, 4266, 4317, 4316
4183, 4266, 4267, 4318, 4317
4184, 4267, 4268, 4319, 4318
4185, 4268, 4269, 4320, 4319
4186, 4269, 4270, 4321, 4320
4187, 4270, 4271, 4322, 4321
4188, 4271, 4272, 4323, 4322
4189, 4272, 4273, 4324, 4323
4190, 4273, 4274, 4325, 4324
4191, 4274, 4275, 4326, 4325
4192, 4275, 4276, 4327, 4326
4193, 4276, 4277, 4328, 4327
4194, 4277, 4278, 4329, 4328
4195, 4278, 4279, 4330, 4329
4196, 4279, 4280, 4331, 4330
4197, 4280, 4281, 4332, 4331
4198, 4281, 4282, 4333, 4332
4199, 4282, 4283, 4334, 4333
4200, 4283, 4284, 4335, 4334
4201, 4285, 4286, 4337, 4336
4202, 4286, 4287, 4338, 4337
4203, 4287, 4288, 4339, 4338
4204, 4288, 4289, 4340, 4339
4205, 4289, 4290, 4341, 4340
4206, 4290, 4291, 4342, 4341
4207, 4291, 4292, 4343, 4342
4208, 4292, 4293, 4344, 4343
4209, 4293, 4294, 4345, 4344
4210, 4294, 4295, 4346, 4345
4211, 4295, 4296, 4347, 4346
4212, 4296, 4297, 4348, 4347
4213, 4297, 4298, 4349, 4348
4214, 4298, 4299, 4350, 4349
4215, 4299, 4300, 4351, 4350
4216, 4300, 4301, 4352, 4351
4217, 4301, 4302, 4353, 4352
4218, 4302, 4303, 4354, 4353
4219, 4303, 4304, 4355, 4354
4220, 4304, 4305, 4356, 4355
4221, 4305, 4306, 4357, 4356
4222, 4306, 4307, 4358, 4357
4223, 4307, 4308, 4359, 4358
4224, 4308, 4309, 4360, 4359
4225, 4309, 4310, 4361, 4360
4226, 4310, 4311, 4362, 4361
4227, 4311, 4312, 4363, 4362
4228, 4312, 4313, 4364, 4363
4229, 4313, 4314, 4365, 4364
4230, 4314, 4315, 4366, 4365
4231, 4315, 4316, 4367, 4366
4232, 4316, 4317, 4368, 4367
4233, 4317, 4318, 4369, 4368
4234, 4318, 4319, 4370, 4369
4235, 4319, 4320, 4371, 4370
4236, 4320, 4321, 4372, 4371
4237, 4321, 4322, 4373, 4372
4238, 4322, 4323, 4374, 4373
4239, 4323, 4324, 4375, 4374
4240, 4324, 4325, 4376, 4375
4241, 4325, 4326, 4377, 4376
4242, 4326, 4327, 4378, 4377
4243, 4327, 4328, 4379, 4378
4244, 4328, 4329, 4380, 4379
4245, 4329, 4330, 4381, 4380
4246, 4330, 4331, 4382, 4381
4247, 4331, 4332, 4383, 4382
4248, 4332, 4333, 4384, 4383
4249, 4333, 4334, 4385, 4384
4250, 4334, 4335, 4386, 4385
4251, 4336, 4337, 4388, 4387
4252, 4337, 4338, 4389, 4388
4253, 4338, 4339, 4390, 4389
4254, 4339, 4340, 4391, 4390
4255, 4340, 4341, 4392, 4391
4256, 4341, 4342, 4393, 4392
4257, 4342, 4343, 4394, 4393
4258, 4343, 4344, 4395, 4394
4259, 4344, 4345, 4396, 4395
4260, 4345, 4346, 4397, 4396
4261, 4346, 4347, 4398, 4397
4262, 4347, 4348, 4399, 4398
4263, 4348, 4349, 4400, 4399
4264, 4349, 4350, 4401, 4400
4265, 4350, 4351, 4402, 4401
4266, 4351, 4352, 4403, 4402
4267, 4352, 4353, 4404, 4403
4268, 4353, 4354, 4405, 4404
4269, 4354, 4355, 4406, 4405
4270, 4355, 4356, 4407, 4406
4271, 4356, 4357, 4408, 4407
4272, 4357, 4358, 4409, 4408
4273, 4358, 4359, 4410, 4409
4274, 4359, 4360, 4411, 4410
4275, 4360, 4361, 4412, 4411
4276, 4361, 4362, 4413, 4412
4277, 4362, 4363, 4414, 4413
4278, 4363, 4364, 4415, 4414
4279, 4364, 4365, 4416, 4415
4280, 4365, 4366, 4417, 4416
4281, 4366, 4367, 4418, 4417
4282, 4367, 4368, 4419, 4418
4283, 4368, 4369, 4420, 4419
4284, 4369, 4370, 4421, 4420
4285, 4370, 4371, 4422, 4421
4286, 4371, 4372, 4423, 4422
4287, 4372, 4373, 4424, 4423
4288, 4373, 4374, 4425, 4424
4289, 4374, 4375, 4426, 4425
4290, 4375, 4376, 4427, 4426
4291, 4376, 4377, 4428, 4427
4292, 4377, 4378, 4429, 4428
4293, 4378, 4379, 4430, 4429
4294, 4379, 4380, 4431, 4430
4295, 4380, 4381, 4432, 4431
4296, 4381, 4382, 4433, 4432
4297, 4382, 4383, 4434, 4433
4298, 4383, 4384, 4435, 4434
4299, 4384, 4385, 4436, 4435
4300, 4385, 4386, 4437, 4436
4301, 4387, 4388, 4439, 4438
4302, 4388, 4389, 4440, 4439
4303, 4389, 4390, 4441, 4440
4304, 4390, 4391, 4442, 4441
4305, 4391, 4392, 4443, 4442
4306, 4392, 4393, 4444, 4443
4307, 4393, 4394, 4445, 4444
4308, 4394, 4395, 4446, 4445
4309, 4395, 4396, 4447, 4446
4310, 4396, 4397, 4448, 4447
4311, 4397, 4398, 4449, 4448
4312, 4398, 4399, 4450, 4449
4313, 4399, 4400, 4451, 4450
4314, 4400, 4401, 4452, 4451
4315, 4401, 4402, 4453, 4452
4316, 4402, 4403, 4454, 4453
4317, 4403, 4404, 4455, 4454
4318, 4404, 4405, 4456, 4455
4319, 4405, 4406, 4457, 4456
4320, 4406, 4407, 4458, 4457
4321, 4407, 4408, 4459, 4458
4322, 4408, 4409, 4460, 4459
4323, 4409, 4410, 4461, 4460
4324, 4410, 4411, 4462, 4461
4325, 4411, 4412, 4463, 4462
4326, 4412, 4413, 4464, 4463
4327, 4413, 4414, 4465, 4464
4328, 4414, 4415, 4466, 4465
4329, 4415, 4416, 4467, 4466
4330, 4416, 4417, 4468, 4467
4331, 4417, 4418, 4469, 4468
4332, 4418, 4419, 4470, 4469
4333, 4419, 4420, 4471, 4470
4334, 4420, 4421, 4472, 4471
4335, 4421, 4422, 4473, 4472
4336, 4422, 4423, 4474, 4473
4337, 4423, 4424, 4475, 4474
4338, 4424, 4425, 4476, 4475
4339, 4425, 4426, 4477, 4476
4340, 4426, 4427, 4478, 4477
4341, 4427, 4428, 4479, 4478
4342, 4428, 4429, 4480, 4479
4343, 4429, 4430, 4481, 4480
4344, 4430, 4431, 4482, 4481
4345, 4431, 4432, 4483, 4482
4346, 4432, 4433, 4484, 4483
4347, 4433, 4434, 4485, 4484
4348, 4434, 4435, 4486, 4485
4349, 4435, 4436, 4487, 4486
4350, 4436, 4437, 4488, 4487
4351, 4438, 4439, 4490, 4489
4352, 4439, 4440, 4491, 4490
4353, 4440, 4441, 4492, 4491
4354, 4441, 4442, 4493, 4492
4355, 4442, 4443, 4494, 4493
4356, 4443, 4444, 4495, 4494
4357, 4444, 4445, 4496, 4495
4358, 4445, 4446, 4497, 4496
4359, 4446, 4447, 4498, 4497
4360, 4447, 4448, 4499, 4498
4361, 4448, 4449, 4500, 4499
4362, 4449, 4450, 4501, 4500
4363, 4450, 4451, 4502, 4501
4364, 4451, 4452, 4503, 4502
4365, 4452, 4453, 4504, 4503
4366, 4453, 4454, 4505, 4504
4367, 4454, 4455, 4506, 4505
4368, 4455, 4456, 4507, 4506
4369, 4456, 4457, 4508, 4507
4370, 4457, 4458, 4509, 4508
4371, 4458, 4459, 4510, 4509
4372, 4459, 4460, 4511, 4510
4373, 4460, 4461, 4512, 4511
4374, 4461, 4462, 4513, 4512
4375, 4462, 4463, 4514, 4513
4376, 4463, 4464, 4515, 4514
4377, 4464, 4465, 4516, 4515
4378, 4465, 4466, 4517, 4516
4379, 4466, 4467, 4518, 4517
4380, 4467, 4468, 4519, 4518
4381, 4468, 4469, 4520, 4519
4382, 4469, 4470, 4521, 4520
4383, 4470, 4471, 4522, 4521
4384, 4471, 4472, 4523, 4522
4385, 4472, 4473, 4524, 4523
4386, 4473, 4474, 4525, 4524
4387, 4474, 4475, 4526, 4525
4388, 4475, 4476, 4527, 4526
4389, 4476, 4477, 4528, 4527
4390, 4477, 4478, 4529, 4528
4391, 4478, 4479, 4530, 4529
4392, 4479, 4480, 4531, 4530
4393, 4480, 4481, 4532, 4531
4394, 4481, 4482, 4533, 4532
4395, 4482, 4483, 4534, 4533
4396, 4483, 4484, 4535, 4534
4397, 4484, 4485, 4536, 4535
4398, 4485, 4486, 4537, 4536
4399, 4486, 4487, 4538, 4537
4400, 4487, 4488, 4539, 4538
4401, 4489, 4490, 4541, 4540
4402, 4490, 4491, 4542, 4541
4403, 4491, 4492, 4543, 4542
4404, 4492, 4493, 4544, 4543
4405, 4493, 4494, 4545, 4544
4406, 4494, 4495, 4546, 4545
4407, 4495, 4496, 4547, 4546
4408, 4496, 4497, 4548, 4547
4409, 4497, 4498, 4549, 4548
4410, 4498, 4499, 4550, 4549
4411, 4499, 4500, 4551, 4550
4412, 4500, 4501, 4552, 4551
4413, 4501, 4502, 4553, 4552
4414, 4502, 4503, 4554, 4553
4415, 4503, 4504, 4555, 4554
4416, 4504, 4505, 4556, 4555
4417, 4505, 4506, 4557, 4556
4418, 4506, 4507, 4558, 4557
4419, 4507, 4508, 4559, 4558
4420, 4508, 4509, 4560, 4559
4421, 4509, 4510, 4561, 4560
4422, 4510, 4511, 4562, 4561
4423, 4511, 4512, 4563, 4562
4424, 4512, 4513, 4564, 4563
4425, 4513, 4514, 4565, 4564
4426, 4514, 4515, 4566, 4565
4427, 4515, 4516, 4567, 4566
4428, 4516, 4517, 4568, 4567
4429, 4517, 4518, 4569, 4568
4430, 4518, 4519, 4570, 4569
4431, 4519, 4520, 4571, 4570
4432, 4520, 4521, 4572, 4571
4433, 4521, 4522, 4573, 4572
4434, 4522, 4523, 4574, 4573
4435, 4523, 4524, 4575, 4574
4436, 4524, 4525, 4576, 4575
4437, 4525, 4526, 4577, 4576
4438, 4526, 4527, 4578, 4577
4439, 4527, 4528, 4579, 4578
4440, 4528, 4529, 4580, 4579
4441, 4529, 4530, 4581, 4580
4442, 4530, 4531, 4582, 4581
4443, 4531, 4532, 4583, 4582
4444, 4532, 4533, 4584, 4583
4445, 4533, 4534, 4585, 4584
4446, 4534, 4535, 4586, 4585
4447, 4535, 4536, 4587, 4586
4448, 4536, 4537, 4588, 4587
4449, 4537, 4538, 4589, 4588
4450, 4538, 4539, 4590, 4589
4451, 4540, 4541, 4592, 4591
4452, 4541, 4542, 4593, 4592
4453, 4542, 4543, 4594, 4593
4454, 4543, 4544, 4595, 4594
4455, 4544, 4545, 4596, 4595
4456, 4545, 4546, 4597, 4596
4457, 4546, 4547, 4598, 4597
4458, 4547, 4548, 4599, 4598
4459, 4548, 4549, 4600, 4599
4460, 4549, 4550, 4601, 4600
4461, 4550, 4551, 4602, 4601
4462, 4551, 4552, 4603, 4602
4463, 4552, 4553, 4604, 4603
4464, 4553, 4554, 4605, 4604
4465, 4554, 4555, 4606, 4605
4466, 4555, 4556, 4607, 4606
4467, 4556, 4557, 4608, 4607
4468, 4557, 4558, 4609, 4608
4469, 4558, 4559, 4610, 4609
4470, 4559, 4560, 4611, 4610
4471, 4560, 4561, 4612, 4611
4472, 4561, 4562, 4613, 4612
4473, 4562, 4563, 4614, 4613
4474, 4563, 4564, 4615, 4614
4475, 4564, 4565, 4616, 4615
4476, 4565, 4566, 4617, 4616
4477, 4566, 4567, 4618, 4617
4478, 4567, 4568, 4619, 4618
4479, 4568, 4569, 4620, 4619
4480, 4569, 4570, 4621, 4620
4481, 4570, 4571, 4622, 4621
4482, 4571, 4572, 4623, 4622
4483, 4572, 4573, 4624, 4623
4484, 4573, 4574, 4625, 4624
4485, 4574, 4575, 4626, 4625
4486, 4575, 4576, 4627, 4626
4487, 4576, 4577, 4628, 4627
4488, 4577, 4578, 4629, 4628
4489, 4578, 4579, 4630, 4629
4490, 4579, 4580, 4631, 4630
4491, 4580, 4581, 4632, 4631
4492, 4581, 4582, 4633, 4632
4493, 4582, 4583, 4634, 4633
4494, 4583, 4584, 4635, 4634
4495, 4584, 4585, 4636, 4635
4496, 4585, 4586, 4637, 4636
4497, 4586, 4587, 4638, 4637
4498, 4587, 4588, 4639, 4638
4499, 4588, 4589, 4640, 4639
4500, 4589, 4590, 4641, 4640
4501, 4591, 4592, 4643, 4642
4502, 4592, 4593, 4644, 4643
4503, 4593, 4594, 4645, 4644
4504, 4594, 4595, 4646, 4645
4505, 4595, 4596, 4647, 4646
4506, 4596, 4597, 4648, 4647
4507, 4597, 4598, 4649, 4648
4508, 4598, 4599, 4650, 4649
4509, 4599, 4600, 4651, 4650
4510, 4600, 4601, 4652, 4651
4511, 4601, 4602, 4653, 4652
4512, 4602, 4603, 4654, 4653
4513, 4603, 4604, 4655, 4654
4514, 4604, 4605, 4656, 4655
4515, 4605, 4606, 4657, 4656
4516, 4606, 4607, 4658, 4657
4517, 4607, 4608, 4659, 4658
4518, 4608, 4609, 4660, 4659
4519, 4609, 4610, 4661, 4660
4520, 4610, 4611, 4662, 4661
4521, 4611, 4612, 4663, 4662
4522, 4612, 4613, 4664, 4663
4523, 4613, 4614, 4665, 4664
4524, 4614, 4615, 4666, 4665
4525, 4615, 4616, 4667, 4666
4526, 4616, 4617, 4668, 4667
4527, 4617, 4618, 4669, 4668
4528, 4618, 4619, 4670, 4669
4529, 4619, 4620, 4671, 4670
4530, 4620, 4621, 4672, 4671
4531, 4621, 4622, 4673, 4672
4532, 4622, 4623, 4674, 4673
4533, 4623, 4624, 4675, 4674
4534, 4624, 4625, 4676, 4675
4535, 4625, 4626, 4677, 4676
4536, 4626, 4627, 4678, 4677
4537, 4627, 4628, 4679, 4678
4538, 4628, 4629, 4680, 4679
4539, 4629, 4630, 4681, 4680
4540, 4630, 4631, 4682, 4681
4541, 4631, 4632, 4683, 4682
4542, 4632, 4633, 4684, 4683
4543, 4633, 4634, 4685, 4684
4544, 4634, 4635, 4686, 4685
4545, 4635, 4636, 4687, 4686
4546, 4636, 4637, 4688, 4687
4547, 4637, 4638, 4689, 4688
4548, 4638, 4639, 4690, 4689
4549, 4639, 4640, 4691, 4690
4550, 4640, 4641, 4692, 4691
4551, 4642, 4643, 4694, 4693
4552, 4643, 4644, 4695, 4694
4553, 4644, 4645, 4696, 4695
4554, 4645, 4646, 4697, 4696
4555, 4646, 4647, 4698, 4697
4556, 4647, 4648, 4699, 4698
4557, 4648, 4649, 4700, 4699
4558, 4649, 4650, 4701, 4700
4559, 4650, 4651, 4702, 4701
4560, 4651, 4652, 4703, 4702
4561, 4652, 4653, 4704, 4703
4562, 4653, 4654, 4705, 4704
4563, 4654, 4655, 4706, 4705
4564, 4655, 4656, 4707, 4706
4565, 4656, 4657, 4708, 4707
4566, 4657, 4658, 4709, 4708
4567, 4658, 4659, 4710, 4709
4568, 4659, 4660, 4711, 4710
4569, 4660, 4661, 4712, 4711
4570, 4661, 4662, 4713, 4712
4571, 4662, 4663, 4714, 4713
4572, 4663, 4664, 4715, 4714
4573, 4664, 4665, 4716, 4715
4574, 4665, 4666, 4717, 4716
4575, 4666, 4667, 4718, 4717
4576, 4667, 4668, 4719, 4718
4577, 4668, 4669, 4720, 4719
4578, 4669, 4670, 4721, 4720
4579, 4670, 4671, 4722, 4721
4580, 4671, 4672, 4723, 4722
4581, 4672, 4673, 4724, 4723
4582, 4673, 4674, 4725, 4724
4583, 4674, 4675, 4726, 4725
4584, 4675, 4676, 4727, 4726
4585, 4676, 4677, 4728, 4727
4586, 4677, 4678, 4729, 4728
4587, 4678, 4679, 4730, 4729
4588, 4679, 4680, 4731, 4730
4589, 4680, 4681, 4732, 4731
4590, 4681, 4682, 4733, 4732
4591, 4682, 4683, 4734, 4733
4592, 4683, 4684, 4735, 4734
4593, 4684, 4685, 4736, 4735
4594, 4685, 4686, 4737, 4736
4595, 4686, 4687, 4738, 4737
4596, 4687, 4688, 4739, 4738
4597, 4688, 4689, 4740, 4739
4598, 4689, 4690, 4741, 4740
4599, 4690, 4691, 4742, 4741
4600, 4691, 4692, 4743, 4742
4601, 4693, 4694, 4745, 4744
4602, 4694, 4695, 4746, 4745
4603, 4695, 4696, 4747, 4746
4604, 4696, 4697, 4748, 4747
4605, 4697, 4698, 4749, 4748
4606, 4698, 4699, 4750, 4749
4607, 4699, 4700, 4751, 4750
4608, 4700, 4701, 4752, 4751
4609, 4701, 4702, 4753, 4752
4610, 4702, 4703, 4754, 4753
4611, 4703, 4704, 4755, 4754
4612, 4704, 4705, 4756, 4755
4613, 4705, 4706, 4757, 4756
4614, 4706, 4707, 4758, 4757
4615, 4707, 4708, 4759, 4758
4616, 4708, 4709, 4760, 4759
4617, 4709, 4710, 4761, 4760
4618, 4710, 4711, 4762, 4761
4619, 4711, 4712, 4763, 4762
4620, 4712, 4713, 4764, 4763
4621, 4713, 4714, 4765, 4764
4622, 4714, 4715, 4766, 4765
4623, 4715, 4716, 4767, 4766
4624, 4716, 4717, 4768, 4767
4625, 4717, 4718, 4769, 4768
4626, 4718, 4719, 4770, 4769
4627, 4719, 4720, 4771, 4770
4628, 4720, 4721, 4772, 4771
4629, 4721, 4722, 4773, 4772
4630, 4722, 4723, 4774, 4773
4631, 4723, 4724, 4775, 4774
4632, 4724, 4725, 4776, 4775
4633, 4725, 4726, 4777, 4776
4634, 4726, 4727, 4778, 4777
4635, 4727, 4728, 4779, 4778
4636, 4728, 4729, 4780, 4779
4637, 4729, 4730, 4781, 4780
4638, 4730, 4731, 4782, 4781
4639, 4731, 4732, 4783, 4782
4640, 4732, 4733, 4784, 4783
4641, 4733, 4734, 4785, 4784
4642, 4734, 4735, 4786, 4785
4643, 4735, 4736, 4787, 4786
4644, 4736, 4737, 4788, 4787
4645, 4737, 4738, 4789, 4788
4646, 4738, 4739, 4790, 4789
4647, 4739, 4740, 4791, 4790
4648, 4740, 4741, 4792, 4791
4649, 4741, 4742, 4793, 4792
4650, 4742, 4743, 4794, 4793
4651, 4744, 4745, 4796, 4795
4652, 4745, 4746, 4797, 4796
4653, 4746, 4747, 4798, 4797
4654, 4747, 4748, 4799, 4798
4655, 4748, 4749, 4800, 4799
4656, 4749, 4750, 4801, 4800
4657, 4750, 4751, 4802, 4801
4658, 4751, 4752, 4803, 4802
4659, 4752, 4753, 4804, 4803
4660, 4753, 4754, 4805, 4804
4661, 4754, 4755, 4806, 4805
4662, 4755, 4756, 4807, 4806
4663, 4756, 4757, 4808, 4807
4664, 4757, 4758, 4809, 4808
4665, 4758, 4759, 4810, 4809
4666, 4759, 4760, 4811, 4810
4667, 4760, 4761, 4812, 4811
4668, 4761, 4762, 4813, 4812
4669, 4762, 4763, 4814, 4813
4670, 4763, 4764, 4815, 4814
4671, 4764, 4765, 4816, 4815
4672, 4765, 4766, 4817, 4816
4673, 4766, 4767, 4818, 4817
4674, 4767, 4768, 4819, 4818
4675, 4768, 4769, 4820, 4819
4676, 4769, 4770, 4821, 4820
4677, 4770, 4771, 4822, 4821
4678, 4771, 4772, 4823, 4822
4679, 4772, 4773, 4824, 4823
4680, 4773, 4774, 4825, 4824
4681, 4774, 4775, 4826, 4825
4682, 4775, 4776, 4827, 4826
4683, 4776, 4777, 4828, 4827
4684, 4777, 4778, 4829, 4828
4685, 4778, 4779, 4830, 4829
4686, 4779, 4780, 4831, 4830
4687, 4780, 4781, 4832, 4831
4688, 4781, 4782, 4833, 4832
4689, 4782, 4783, 4834, 4833
4690, 4783, 4784, 4835, 4834
4691, 4784, 4785, 4836, 4835
4692, 4785, 4786, 4837, 4836
4693, 4786, 4787, 4838, 4837
4694, 4787, 4788, 4839, 4838
4695, 4788, 4789, 4840, 4839
4696, 4789, 4790, 4841, 4840
4697, 4790, 4791, 4842, 4841
4698, 4791, 4792, 4843, 4842
4699, 4792, 4793, 4844, 4843
4700, 4793, 4794, 4845, 4844
4701, 4795, 4796, 4847, 4846
4702, 4796, 4797, 4848, 4847
4703, 4797, 4798, 4849, 4848
4704, 4798, 4799, 4850, 4849
4705, 4799, 4800, 4851, 4850
4706, 4800, 4801, 4852, 4851
4707, 4801, 4802, 4853, 4852
4708, 4802, 4803, 4854, 4853
4709, 4803, 4804, 4855, 4854
4710, 4804, 4805, 4856, 4855
4711, 4805, 4806, 4857, 4856
4712, 4806, 4807, 4858, 4857
4713, 4807, 4808, 4859, 4858
4714, 4808, 4809, 4860, 4859
4715, 4809, 4810, 4861, 4860
4716, 4810, 4811, 4862, 4861
4717, 4811, 4812, 4863, 4862
4718, 4812, 4813, 4864, 4863
4719, 4813, 4814, 4865, 4864
4720, 4814, 4815, 4866, 4865
4721, 4815, 4816, 4867, 4866
4722, 4816, 4817, 4868, 4867
4723, 4817, 4818, 4869, 4868
4724, 4818, 4819, 4870, 4869
4725, 4819, 4820, 4871, 4870
4726, 4820, 4821, 4872, 4871
4727, 4821, 4822, 4873, 4872
4728, 4822, 4823, 4874, 4873
4729, 4823, 4824, 4875, 4874
4730, 4824, 4825, 4876, 4875
4731, 4825, 4826, 4877, 4876
4732, 4826, 4827, 4878, 4877
4733, 4827, 4828, 4879, 4878
4734, 4828, 4829, 4880, 4879
4735, 4829, 4830, 4881, 4880
4736, 4830, 4831, 4882, 4881
4737, 4831, 4832, 4883, 4882
4738, 4832, 4833, 4884, 4883
4739, 4833, 4834, 4885, 4884
4740, 4834, 4835, 4886, 4885
4741, 4835, 4836, 4887, 4886
4742, 4836, 4837, 4888, 4887
4743, 4837, 4838, 4889, 4888
4744, 4838, 4839, 4890, 4889
4745, 4839, 4840, 4891, 4890
4746, 4840, 4841, 4892, 4891
4747, 4841, 4842, 4893, 4892
4748, 4842, 4843, 4894, 4893
4749, 4843, 4844, 4895, 4894
4750, 4844, 4845, 4896, 4895
4751, 4846, 4847, 4898, 4897
4752, 4847, 4848, 4899, 4898
4753, 4848, 4849, 4900, 4899
4754, 4849, 4850, 4901, 4900
4755, 4850, 4851, 4902, 4901
4756, 4851, 4852, 4903, 4902
4757, 4852, 4853, 4904, 4903
4758, 4853, 4854, 4905, 4904
4759, 4854, 4855, 4906, 4905
4760, 4855, 4856, 4907, 4906
4761, 4856, 4857, 4908, 4907
4762, 4857, 4858, 4909, 4908
4763, 4858, 4859, 4910, 4909
4764, 4859, 4860, 4911, 4910
4765, 4860, 4861, 4912, 4911
4766, 4861, 4862, 4913, 4912
4767, 4862, 4863, 4914, 4913
4768, 4863, 4864, 4915, 4914
4769, 4864, 4865, 4916, 4915
4770, 4865, 4866, 4917, 4916
4771, 4866, 4867, 4918, 4917
4772, 4867, 4868, 4919, 4918
4773, 4868, 4869, 4920, 4919
4774, 4869, 4870, 4921, 4920
4775, 4870, 4871, 4922, 4921
4776, 4871, 4872, 4923, 4922
4777, 4872, 4873, 4924, 4923
4778, 4873, 4874, 4925, 4924
4779, 4874, 4875, 4926, 4925
4780, 4875, 4876, 4927, 4926
4781, 4876, 4877, 4928, 4927
4782, 4877, 4878, 4929, 4928
4783, 4878, 4879, 4930, 4929
4784, 4879, 4880, 4931, 4930
4785, 4880, 4881, 4932, 4931
4786, 4881, 4882, 4933, 4932
4787, 4882, 4883, 4934, 4933
4788, 4883, 4884, 4935, 4934
4789, 4884, 4885, 4936, 4935
4790, 4885, 4886, 4937, 4936
4791, 4886, 4887, 4938, 4937
4792, 4887, 4888, 4939, 4938
4793, 4888, 4889, 4940, 4939
4794, 4889, 4890, 4941, 4940
4795, 4890, 4891, 4942, 4941
4796, 4891, 4892, 4943, 4942
4797, 4892, 4893, 4944, 4943
4798, 4893, 4894, 4945, 4944
4799, 4894, 4895, 4946, 4945
4800, 4895, 4896, 4947, 4946
4801, 4897, 4898, 4949, 4948
4802, 4898, 4899, 4950, 4949
4803, 4899, 4900, 4951, 4950
4804, 4900, 4901, 4952, 4951
4805, 4901, 4902, 4953, 4952
4806, 4902, 4903, 4954, 4953
4807, 4903, 4904, 4955, 4954
4808, 4904, 4905, 4956, 4955
4809, 4905, 4906, 4957, 4956
4810, 4906, 4907, 4958, 4957
4811, 4907, 4908, 4959, 4958
4812, 4908, 4909, 4960, 4959
4813, 4909, 4910, 4961, 4960
4814, 4910, 4911, 4962, 4961
4815, 4911, 4912, 4963, 4962
4816, 4912, 4913, 4964, 4963
4817, 4913, 4914, 4965, 4964
4818, 4914, 4915, 4966, 4965
4819, 4915, 4916, 4967, 4966
4820, 4916, 4917, 4968, 4967
4821, 4917, 4918, 4969, 4968
4822, 4918, 4919, 4970, 4969
4823, 4919, 4920, 4971, 4970
4824, 4920, 4921, 4972, 4971
4825, 4921, 4922, 4973, 4972
4826, 4922, 4923, 4974, 4973
4827, 4923, 4924, 4975, 4974
4828, 4924, 4925, 4976, 4975
4829, 4925, 4926, 4977, 4976
4830, 4926, 4927, 4978, 4977
4831, 4927, 4928, 4979, 4978
4832, 4928, 4929, 4980, 4979
4833, 4929, 4930, 4981, 4980
4834, 4930, 4931, 4982, 4981
4835, 4931, 4932, 4983, 4982
4836, 4932, 4933, 4984, 4983
4837, 4933, 4934, 4985, 4984
4838, 4934, 4935, 4986, 4985
4839, 4935, 4936, 4987, 4986
4840, 4936, 4937, 4988, 4987
4841, 4937, 4938, 4989, 4988
4842, 4938, 4939, 4990, 4989
4843, 4939, 4940, 4991, 4990
4844, 4940, 4941, 4992, 4991
4845, 4941, 4942, 4993, 4992
4846, 4942, 4943, 4994, 4993
4847, 4943, 4944, 4995, 4994
4848, 4944, 4945, 4996, 4995
4849, 4945, 4946, 4997, 4996
4850, 4946, 4947, 4998, 4997
4851, 4948, 4949, 5000, 4999
4852, 4949, 4950, 5001, 5000
4853, 4950, 4951, 5002, 5001
4854, 4951, 4952, 5003, 5002
4855, 4952, 4953, 5004, 5003
4856, 4953, 4954, 5005, 5004
4857, 4954, 4955, 5006, 5005
4858, 4955, 4956, 5007, 5006
4859, 4956, 4957, 5008, 5007
4860, 4957, 4958, 5009, 5008
4861, 4958, 4959, 5010, 5009
4862, 4959, 4960, 5011, 5010
4863, 4960, 4961, 5012, 5011
4864, 4961, 4962, 5013, 5012
4865, 4962, 4963, 5014, 5013
4866, 4963, 4964, 5015, 5014
4867, 4964, 4965, 5016, 5015
4868, 4965, 4966, 5017, 5016
4869, 4966, 4967, 5018, 5017
4870, 4967, 4968, 5019, 5018
4871, 4968, 4969, 5020, 5019
4872, 4969, 4970, 5021, 5020
4873, 4970, 4971, 5022, 5021
4874, 4971, 4972, 5023, 5022
4875, 4972, 4973, 5024, 5023
4876, 4973, 4974, 5025, 5024
4877, 4974, 4975, 5026, 5025
4878, 4975, 4976, 5027, 5026
4879, 4976, 4977, 5028, 5027
4880, 4977, 4978, 5029, 5028
4881, 4978, 4979, 5030, 5029
4882, 4979, 4980, 5031, 5030
4883, 4980, 4981, 5032, 5031
4884, 4981, 4982, 5033, 5032
4885, 4982, 4983, 5034, 5033
4886, 4983, 4984, 5035, 5034
4887, 4984, 4985, 5036, 5035
4888, 4985, 4986, 5037, 5036
4889, 4986, 4987, 5038, 5037
4890, 4987, 4988, 5039, 5038
4891, 4988, 4989, 5040, 5039
4892, 4989, 4990, 5041, 5040
4893, 4990, 4991, 5042, 5041
4894, 4991, 4992, 5043, 5042
4895, 4992, 4993, 5044, 5043
4896, 4993, 4994, 5045, 5044
4897, 4994, 4995, 5046, 5045
4898, 4995, 4996, 5047, 5046
4899, 4996, 4997, 5048, 5047
4900, 4997, 4998, 5049, 5048
4901, 4999, 5000, 5051, 5050
4902, 5000, 5001, 5052, 5051
4903, 5001, 5002, 5053, 5052
4904, 5002, 5003, 5054, 5053
4905, 5003, 5004, 5055, 5054
4906, 5004, 5005, 5056, 5055
4907, 5005, 5006, 5057, 5056
4908, 5006, 5007, 5058, 5057
4909, 5007, 5008, 5059, 5058
4910, 5008, 5009, 5060, 5059
4911, 5009, 5010, 5061, 5060
4912, 5010, 5011, 5062, 5061
4913, 5011, 5012, 5063, 5062
4914, 5012, 5013, 5064, 5063
4915, 5013, 5014, 5065, 5064
4916, 5014, 5015, 5066, 5065
4917, 5015, 5016, 5067, 5066
4918, 5016, 5017, 5068, 5067
4919, 5017, 5018, 5069, 5068
4920, 5018, 5019, 5070, 5069
4921, 5019, 5020, 5071, 5070
4922, 5020, 5021, 5072, 5071
4923, 5021, 5022, 5073, 5072
4924, 5022, 5023, 5074, 5073
4925, 5023, 5024, 5075, 5074
4926, 5024, 5025, 5076, 5075
4927, 5025, 5026, 5077, 5076
4928, 5026, 5027, 5078, 5077
4929, 5027, 5028, 5079, 5078
4930, 5028, 5029, 5080, 5079
4931, 5029, 5030, 5081, 5080
4932, 5030, 5031, 5082, 5081
4933, 5031, 5032, 5083, 5082
4934, 5032, 5033, 5084, 5083
4935, 5033, 5034, 5085, 5084
4936, 5034, 5035, 5086, 5085
4937, 5035, 5036, 5087, 5086
4938, 5036, 5037, 5088, 5087
4939, 5037, 5038, 5089, 5088
4940, 5038, 5039, 5090, 5089
4941, 5039, 5040, 5091, 5090
4942, 5040, 5041, 5092, 5091
4943, 5041, 5042, 5093, 5092
4944, 5042, 5043, 5094, 5093
4945, 5043, 5044, 5095, 5094
4946, 5044, 5045, 5096, 5095
4947, 5045, 5046, 5097, 5096
4948, 5046, 5047, 5098, 5097
4949, 5047, 5048, 5099, 5098
4950, 5048, 5049, 5100, 5099
4951, 5050, 5051, 5102, 5101
4952, 5051, 5052, 5103, 5102
4953, 5052, 5053, 5104, 5103
4954, 5053, 5054, 5105, 5104
4955, 5054, 5055, 5106, 5105
4956, 5055, 5056, 5107, 5106
4957, 5056, 5057, 5108, 5107
4958, 5057, 5058, 5109, 5108
4959, 5058, 5059, 5110, 5109
4960, 5059, 5060, 5111, 5110
4961, 5060, 5061, 5112, 5111
4962, 5061, 5062, 5113, 5112
4963, 5062, 5063, 5114, 5113
4964, 5063, 5064, 5115, 5114
4965, 5064, 5065, 5116, 5115
4966, 5065, 5066, 5117, 5116
4967, 5066, 5067, 5118, 5117
4968, 5067, 5068, 5119, 5118
4969, 5068, 5069, 5120, 5119
4970, 5069, 5070, 5121, 5120
4971, 5070, 5071, 5122, 5121
4972, 5071, 5072, 5123, 5122
4973, 5072, 5073, 5124, 5123
4974, 5073, 5074, 5125, 5124
4975, 5074, 5075, 5126, 5125
4976, 5075, 5076, 5127, 5126
4977, 5076, 5077, 5128, 5127
4978, 5077, 5078, 5129, 5128
4979, 5078, 5079, 5130, 5129
4980, 5079, 5080, 5131, 5130
4981, 5080, 5081, 5132, 5131
4982, 5081, 5082, 5133, 5132
4983, 5082, 5083, 5134, 5133
4984, 5083, 5084, 5135, 5134
4985, 5084, 5085, 5136, 5135
4986, 5085, 5086, 5137, 5136
4987, 5086, 5087, 5138, 5137
4988, 5087, 5088, 5139, 5138
4989, 5088, 5089, 5140, 5139
4990, 5089, 5090, 5141, 5140
4991, 5090, 5091, 5142, 5141
4992, 5091, 5092, 5143, 5142
4993, 5092, 5093, 5144, 5143
4994, 5093, 5094, 5145, 5144
4995, 5094, 5095, 5146, 5145
4996, 5095, 5096, 5147, 5146
4997, 5096, 5097, 5148, 5147
4998, 5097, 5098, 5149, 5148
4999, 5098, 5099, 5150, 5149
5000, 5099, 5100, 5151, 5150
*Nset, nset=SET-1, generate
    1,  5151,     1
*Elset, elset=SET-1, generate
    1,  5000,     1
*Nset, nset="All Elements", generate
    1,  5151,     1
*Elset, elset="All Elements", generate
    1,  5000,     1
** Section: Section-1-SET-1
*Solid Section, elset=SET-1, material=BOLUS
,
*End Part
**  
**
** ASSEMBLY
**
*Assembly, name=Assembly
**  
*Instance, name=BOLUS-1, part=BOLUS
*End Instance
**  
*Node
      1,           5.,          20.
*Nset, nset=SET-1, instance=BOLUS-1
 1,
*Nset, nset=SET-2, instance=BOLUS-1, generate
 5101,  5151,     1
*Elset, elset=SET-2, instance=BOLUS-1, generate
 4951,  5000,     1
*Nset, nset=SET-3, instance=BOLUS-1, generate
  1,  51,   1
*Elset, elset=SET-3, instance=BOLUS-1, generate
  1,  50,   1
*Nset, nset=SET-4, instance=BOLUS-1, generate
    1,  5151,     1
*Nset, nset=SET-4
 1,
*End Assembly
*Amplitude, name=AMP-001
             0.,              0.,           3.046,             0.6,           6.188,             1.2,           9.431,             1.8
         12.783,             2.4,          16.252,              3.,          19.845,             3.6,          23.572,             4.2
         27.444,             4.8,          31.471,             5.4,          35.667,              6.,          40.048,             6.6
*Amplitude, name=AMP-01
             0.,              0.,           0.305,             0.6,           0.619,             1.2,           0.943,             1.8
          1.278,             2.4,           1.625,              3.,           1.985,             3.6,           2.357,             4.2
          2.744,             4.8,           3.147,             5.4,           3.567,              6.,           4.005,             6.6
*Amplitude, name=AMP-025
             0.,              0.,      0.12183683,             0.6,     0.247501615,             1.2,     0.377242718,             1.8
    0.511333486,             2.4,     0.650075718,              3.,     0.793803755,             3.6,     0.942889334,             4.2
    1.097747383,             4.8,     1.258842979,             5.4,     1.426699776,              6.,           1.602,             6.6
*Amplitude, name=AMP-05
             0.,              0.,           0.061,             0.6,           0.124,             1.2,           0.189,             1.8
          0.256,             2.4,           0.325,              3.,           0.397,             3.6,           0.471,             4.2
          0.549,             4.8,           0.629,             5.4,           0.713,              6.,           0.801,             6.6
** 
** MATERIALS
** 
*Material, name=BOLUS
*Density
 1.1e-09,
*Elastic
 0.081634, 0.46
*Plastic, rate=0.
 0.00025,0.
*Plastic, rate=0.082
 0.000264299,0.
 0.000997011, 0.008
 0.00123259, 0.01
 0.00231771, 0.02
 0.00406807, 0.04
 0.00492526, 0.06
 0.00530973, 0.08
 0.00550368, 0.1
 0.00560137, 0.12
 0.00564938, 0.14
 0.00566878, 0.16
 0.00567117, 0.18
 0.00565523, 0.2
 0.00563454, 0.22
 0.00560499, 0.24
 0.00557433, 0.26
 0.00553563, 0.28
 0.00549163, 0.3
*Plastic, rate=0.201
 0.000368415,0.
 0.00134407, 0.008
 0.00164133, 0.01
 0.00295956, 0.02
 0.00499808, 0.04
 0.00605386, 0.06
 0.00651464, 0.08
 0.00674507, 0.1
 0.00684526, 0.12
 0.0068905, 0.14
 0.0069028, 0.16
 0.00688952, 0.18
 0.00686413, 0.2
 0.00682624, 0.22
 0.00677671, 0.24
 0.00672943, 0.26
 0.00667037, 0.28
 0.00660919, 0.3
*Plastic, rate=0.4028
 0.00090115,0.
 0.00210499, 0.008
 0.00252168, 0.01
 0.00424159, 0.02
 0.00633824, 0.04
 0.00713009, 0.06
 0.0074998, 0.08
 0.00766323, 0.1
 0.00773534, 0.12
 0.00777385, 0.14
 0.00776569, 0.16
 0.00772857, 0.18
 0.00769696, 0.2
 0.00763898, 0.22
 0.00757221, 0.24
** 
** BOUNDARY CONDITIONS
** 
** Name: Disp-BC-1 Type: Symmetry/Antisymmetry/Encastre
*Boundary
SET-1, ENCASTRE
** Name: Disp-BC-2 Type: Displacement/Rotation
*Boundary
SET-3, 2, 2
** ----------------------------------------------------------------
** 
** STEP: Displacement
** 
*Step, name=Displacement, nlgeom=YES, inc=100000
*Static
0.004, 1.602, 1.5e-10, 0.004
** 
** BOUNDARY CONDITIONS
** 
** Name: Disp-BC-3 Type: Displacement/Rotation
*Boundary, amplitude=AMP-025
SET-2, 2, 2, -1.
** 
** CONTROLS
** 
*Controls, reset
*Controls, parameters=time incrementation
, , , , , , , 15, , , 
** 
** OUTPUT REQUESTS
** 
*Restart, write, frequency=0
** 
** FIELD OUTPUT: F-Output-1
** 
*Output, field
*Element Output, directions=YES
ER, FV, LE, PE, PEEQ, PEMAG, S, SDV
** 
** FIELD OUTPUT: F-Output-2
** 
*Node Output
U, 
** 
** HISTORY OUTPUT: H-Output-1
** 
*Output, history
*Element Output, elset=BOLUS-1."All Elements"
E22, MISES, S22
*End Step
