*Heading
** Job name: Shear_Job_MC60 Model name: Shear_Job_MC60
** Generated by: Abaqus/CAE 2023
*Preprint, echo=NO, model=NO, history=NO, contact=NO
**
** PARTS
**
*Part, name=CUBE
*Node
      1,           0.,         12.5,           3.
      2,           0.,           0.,           3.
      3,           0.,         12.5,           0.
      4,           0.,           0.,           0.
      5,        -12.5,         12.5,           3.
      6,        -12.5,           0.,           3.
      7,        -12.5,         12.5,           0.
      8,        -12.5,           0.,           0.
*Element, type=C3D8R
1, 5, 6, 8, 7, 1, 2, 4, 3
*Nset, nset=_PICKEDSET4, internal, generate
 1,  8,  1
*Elset, elset=_PICKEDSET4, internal
 1,
** Section: Section-1-_PICKEDSET4
*Solid Section, elset=_PICKEDSET4, material=BOLUS
,
*End Part
**  
**
** ASSEMBLY
**
*Assembly, name=Assembly
**  
*Instance, name=CUBE-1, part=CUBE
          0.,           0.,           0.
          0.,           0.,           0., 1.00000001268805,           0.,           0., 89.9999992730282
*End Instance
**  
*Nset, nset=SET-1, instance=CUBE-1
 1, 2, 5, 6
*Elset, elset=SET-1, instance=CUBE-1
 1,
*Nset, nset=SET-2, instance=CUBE-1
 3, 4, 7, 8
*Elset, elset=SET-2, instance=CUBE-1
 1,
*Nset, nset=_PICKEDSET7, internal, instance=CUBE-1
 1, 2, 5, 6
*Elset, elset=_PICKEDSET7, internal, instance=CUBE-1
 1,
*Nset, nset=_PICKEDSET8, internal, instance=CUBE-1
 3, 4, 7, 8
*Elset, elset=_PICKEDSET8, internal, instance=CUBE-1
 1,
*End Assembly
*Amplitude, name=Amp-001
             0.,              0.,            28.9,           1.445
*Amplitude, name=Amp-01
             0.,              0.,            2.89,           1.445
*Amplitude, name=Amp-025
             0.,              0.,            1.16,           1.445
*Amplitude, name=Amp-05
             0.,              0.,            0.58,           1.445
** 
** MATERIALS
** 
*Material, name=BOLUS
*Density
 1.1e-09,
*Elastic
 0.081634, 0.46
*Plastic, rate=0.
 0.00025,0.
*Plastic, rate=0.082
 0.000264299,0.
 0.000997011, 0.008
 0.00123259, 0.01
 0.00231771, 0.02
 0.00406807, 0.04
 0.00492526, 0.06
 0.00530973, 0.08
 0.00550368, 0.1
 0.00560137, 0.12
 0.00564938, 0.14
 0.00566878, 0.16
 0.00567117, 0.18
 0.00565523, 0.2
 0.00563454, 0.22
 0.00560499, 0.24
 0.00557433, 0.26
 0.00553563, 0.28
 0.00549163, 0.3
*Plastic, rate=0.201
 0.000368415,0.
 0.00134407, 0.008
 0.00164133, 0.01
 0.00295956, 0.02
 0.00499808, 0.04
 0.00605386, 0.06
 0.00651464, 0.08
 0.00674507, 0.1
 0.00684526, 0.12
 0.0068905, 0.14
 0.0069028, 0.16
 0.00688952, 0.18
 0.00686413, 0.2
 0.00682624, 0.22
 0.00677671, 0.24
 0.00672943, 0.26
 0.00667037, 0.28
 0.00660919, 0.3
*Plastic, rate=0.4028
 0.00090115,0.
 0.00210499, 0.008
 0.00252168, 0.01
 0.00424159, 0.02
 0.00633824, 0.04
 0.00713009, 0.06
 0.0074998, 0.08
 0.00766323, 0.1
 0.00773534, 0.12
 0.00777385, 0.14
 0.00776569, 0.16
 0.00772857, 0.18
 0.00769696, 0.2
 0.00763898, 0.22
 0.00757221, 0.24
** 
** BOUNDARY CONDITIONS
** 
** Name: Disp-BC-1 Type: Symmetry/Antisymmetry/Encastre
*Boundary
_PICKEDSET7, ENCASTRE
** ----------------------------------------------------------------
** 
** STEP: Step-1
** 
*Step, name=Step-1, nlgeom=YES, inc=1000000
*Static
0.006, 2.89, 1e-07, 0.006
** 
** BOUNDARY CONDITIONS
** 
** Name: Disp-BC-2 Type: Displacement/Rotation
*Boundary, amplitude=AMP-1
_PICKEDSET8, 1, 1, 1.
** Name: Disp-BC-3 Type: Displacement/Rotation
*Boundary, amplitude=AMP-1
_PICKEDSET8, 2, 2
** Name: Disp-BC-4 Type: Displacement/Rotation
*Boundary, amplitude=AMP-1
_PICKEDSET8, 3, 3
** Name: Disp-BC-5 Type: Displacement/Rotation
*Boundary, amplitude=AMP-1
_PICKEDSET8, 4, 4
** Name: Disp-BC-6 Type: Displacement/Rotation
*Boundary, amplitude=AMP-1
_PICKEDSET8, 5, 5
** 
** OUTPUT REQUESTS
** 
*Restart, write, frequency=0
** 
** FIELD OUTPUT: F-Output-1
** 
*Output, field, variable=PRESELECT
** 
** HISTORY OUTPUT: H-Output-1
** 
*Output, history, variable=PRESELECT
*End Step
